\ Model x1
\ LP format - for model browsing. Use MPS format to capture full model detail.
Minimize
  0.0333333333333333 x2 + 0.0333333333333333 x3 + 4380 x4 + 4380 x5
   + 4.38e+08 x6 + 4.38e+08 x7
Subject To
 c_e_x8_: x3 - 4000 x9 - 4800 x10 - 6000 x11 - 8000 x12
   - 10295.630140987 x13 - 12354.7561691844 x14 - 15443.4452114805 x15
   - 20591.260281974 x16 - 12041.59457879229 x17 - 14449.91349455075 x18
   - 18062.39186818844 x19 - 24083.18915758459 x20 - 14866.0687473185 x21
   - 17839.28249678221 x22 - 22299.10312097776 x23 - 29732.13749463701 x24
   - 10770.32961426901 x25 - 12924.39553712281 x26 - 16155.49442140351 x27
   - 21540.65922853801 x28 - 10295.630140987 x29 - 12354.7561691844 x30
   - 15443.4452114805 x31 - 20591.260281974 x32 - 9219.544457292886 x33
   - 11063.45334875147 x34 - 13829.31668593933 x35 - 18439.08891458577 x36
   - 11000 x37 - 13200 x38 - 16500 x39 - 22000 x40 - 2236.06797749979 x41
   - 2683.281572999748 x42 - 3354.101966249685 x43 - 4472.13595499958 x44
   - 4472.13595499958 x45 - 5366.563145999497 x46 - 6708.203932499369 x47
   - 8944.271909999159 x48 - 5656.85424949238 x49 - 6788.225099390856 x50
   - 8485.281374238572 x51 - 11313.70849898476 x52 - 5000 x53 - 6000 x54
   - 7500 x55 - 10000 x56 - 3162.277660168379 x57 - 3794.733192202055 x58
   - 4743.416490252569 x59 - 6324.555320336758 x60 - 1414.213562373095 x61
   - 1697.056274847714 x62 - 2121.320343559643 x63 - 2828.42712474619 x64
   - 3162.277660168379 x65 - 3794.733192202055 x66 - 4743.416490252569 x67
   - 6324.555320336758 x68 - 5656.85424949238 x69 - 6788.225099390856 x70
   - 8485.281374238572 x71 - 11313.70849898476 x72 - 4123.105625617661 x73
   - 4947.726750741193 x74 - 6184.658438426491 x75 - 8246.211251235321 x76
   - 1414.213562373095 x77 - 1697.056274847714 x78 - 2121.320343559643 x79
   - 2828.42712474619 x80 - 2828.42712474619 x81 - 3394.112549695428 x82
   - 4242.640687119286 x83 - 5656.85424949238 x84 - 2236.06797749979 x85
   - 2683.281572999748 x86 - 3354.101966249685 x87 - 4472.13595499958 x88
   - 1360.147050873544 x89 - 1632.176461048253 x90 - 2040.220576310317 x91
   - 2720.294101747088 x92 - 2507.987240796891 x93 - 3009.584688956269 x94
   - 3761.980861195336 x95 - 5015.974481593782 x96 - 5103.920062069938 x97
   - 6124.704074483926 x98 - 7655.880093104907 x99 - 10207.84012413988 x100
   - 2400 x101 - 2880 x102 - 3600 x103 - 4800 x104 - 5731.49195236284 x105
   - 6877.790342835408 x106 - 8597.23792854426 x107
   - 11462.98390472568 x108 - 5769.748694700662 x109
   - 6923.698433640795 x110 - 8654.623042050993 x111
   - 11539.49738940132 x112 - 4801.041553663122 x113
   - 5761.249864395745 x114 - 7201.562330494682 x115
   - 9602.083107326243 x116 - 5635.601121442148 x117
   - 6762.721345730579 x118 - 8453.401682163223 x119
   - 11271.2022428843 x120 - 6859.300255857006 x121
   - 8231.160307028409 x122 - 10288.95038378551 x123
   - 13718.60051171401 x124 - 2507.987240796891 x125
   - 3009.584688956269 x126 - 3761.980861195336 x127
   - 5015.974481593782 x128 - 5003.998401278722 x129
   - 6004.798081534465 x130 - 7505.997601918081 x131
   - 10007.99680255744 x132 - 2501.999200639361 x133
   - 3002.399040767233 x134 - 3752.998800959041 x135
   - 5003.998401278722 x136 - 3324.154027718932 x137
   - 3988.984833262718 x138 - 4986.231041578399 x139
   - 6648.308055437865 x140 - 4031.128874149274 x141
   - 4837.35464897913 x142 - 6046.693311223912 x143
   - 8062.257748298549 x144 - 2256.102834535695 x145
   - 2707.323401442835 x146 - 3384.154251803544 x147
   - 4512.205669071391 x148 - 3498.57113690718 x149
   - 4198.285364288617 x150 - 5247.856705360769 x151
   - 6997.14227381436 x152 - 1964.68827043885 x153 - 2357.62592452662 x154
   - 2947.032405658275 x155 - 3929.3765408777 x156 - 500 x157 - 600 x158
   - 750 x159 - 1000 x160 - 2236.06797749979 x161 - 2683.281572999748 x162
   - 3354.101966249685 x163 - 4472.13595499958 x164
   - 3605.551275463989 x165 - 4326.661530556788 x166
   - 5408.326913195983 x167 - 7211.102550927978 x168 - 2000 x169
   - 2400 x170 - 3000 x171 - 4000 x172 - 3162.277660168379 x173
   - 3794.733192202055 x174 - 4743.416490252569 x175
   - 6324.555320336758 x176 - 3605.551275463989 x177
   - 4326.661530556788 x178 - 5408.326913195983 x179
   - 7211.102550927978 x180 - 3000 x181 - 3600 x182 - 4500 x183 - 6000 x184
   - 1720.465053408526 x185 - 2064.55806409023 x186
   - 2580.697580112788 x187 - 3440.930106817051 x188
   - 4044.749683231337 x189 - 4853.699619877605 x190
   - 6067.124524847006 x191 - 8089.499366462674 x192
   - 1941.64878389476 x193 - 2329.978540673712 x194 - 2912.47317584214 x195
   - 3883.29756778952 x196 - 2630.589287593181 x197
   - 3156.707145111817 x198 - 3945.883931389772 x199
   - 5261.178575186363 x200 - 3606.937759374287 x201
   - 4328.325311249143 x202 - 5410.40663906143 x203
   - 7213.875518748573 x204 - 5554.277630799525 x205
   - 6665.133156959431 x206 - 8331.41644619929 x207
   - 11108.55526159905 x208 - 5546.169849544819 x209
   - 6655.403819453782 x210 - 8319.254774317227 x211
   - 11092.33969908964 x212 - 4601.086828130937 x213
   - 5521.304193757123 x214 - 6901.630242196405 x215
   - 9202.173656261873 x216 - 5322.593352868505 x217
   - 6387.112023442207 x218 - 7983.890029302759 x219
   - 10645.18670573701 x220 - 3538.361202590826 x221
   - 4246.033443108992 x222 - 5307.541803886239 x223
   - 7076.722405181653 x224 - 2531.797780234433 x225
   - 3038.157336281319 x226 - 3797.696670351649 x227
   - 5063.595560468865 x228 - 3612.478373637688 x229
   - 4334.974048365227 x230 - 5418.717560456532 x231
   - 7224.956747275376 x232 - 2607.68096208106 x233
   - 3129.217154497272 x234 - 3911.52144312159 x235 - 5215.36192416212 x236
   - 5412.947441089744 x237 - 6495.536929307691 x238
   - 8119.421161634614 x239 - 10825.89488217949 x240 - 3482.8149534536 x241
   - 4179.377944144319 x242 - 5224.222430180399 x243 - 6965.6299069072 x244
   - 2202.271554554524 x245 - 2642.725865465429 x246
   - 3303.407331831786 x247 - 4404.543109109048 x248 = 0
 c_e_x249_: x2 - 200 x250 - 200 x251 - 300 x252 - 300 x253 - 300 x254
   - 300 x255 = 0
 c_e_x256_: x4 - 7.82507e-08 x257 - 3.90684e-08 x258 - 3.10044e-08 x259
   - 2.46329e-08 x260 - 2.0141e-07 x261 - 1.00559e-07 x262
   - 7.98026e-08 x263 - 6.34028e-08 x264 - 2.35566e-07 x265
   - 1.17612e-07 x266 - 9.33357e-08 x267 - 7.41548e-08 x268
   - 2.9082e-07 x269 - 1.45199e-07 x270 - 1.15229e-07 x271
   - 9.15486e-08 x272 - 2.10696e-07 x273 - 1.05195e-07 x274
   - 8.3482e-08 x275 - 6.63261e-08 x276 - 2.0141e-07 x277
   - 1.00559e-07 x278 - 7.98026e-08 x279 - 6.34028e-08 x280
   - 1.80359e-07 x281 - 9.00483e-08 x282 - 7.14617e-08 x283
   - 5.6776e-08 x284 - 2.15189e-07 x285 - 1.07438e-07 x286
   - 8.52622e-08 x287 - 6.77404e-08 x288 - 4.37435e-08 x289
   - 2.18399e-08 x290 - 1.7332e-08 x291 - 1.37702e-08 x292
   - 8.74869e-08 x293 - 4.36798e-08 x294 - 3.4664e-08 x295
   - 2.75404e-08 x296 - 1.10663e-07 x297 - 5.52511e-08 x298
   - 4.38469e-08 x299 - 3.48362e-08 x300 - 9.78133e-08 x301
   - 4.88356e-08 x302 - 3.87556e-08 x303 - 3.07911e-08 x304
   - 6.18626e-08 x305 - 3.08863e-08 x306 - 2.45112e-08 x307
   - 1.9474e-08 x308 - 2.76658e-08 x309 - 1.38128e-08 x310
   - 1.09617e-08 x311 - 8.70904e-09 x312 - 6.18626e-08 x313
   - 3.08863e-08 x314 - 2.45112e-08 x315 - 1.9474e-08 x316
   - 1.10663e-07 x317 - 5.52511e-08 x318 - 4.38469e-08 x319
   - 3.48362e-08 x320 - 8.06589e-08 x321 - 4.02708e-08 x322
   - 3.19586e-08 x323 - 2.5391e-08 x324 - 2.76658e-08 x325
   - 1.38128e-08 x326 - 1.09617e-08 x327 - 8.70904e-09 x328
   - 5.53316e-08 x329 - 2.76256e-08 x330 - 2.19235e-08 x331
   - 1.74181e-08 x332 - 4.37435e-08 x333 - 2.18399e-08 x334
   - 1.7332e-08 x335 - 1.37702e-08 x336 - 3.74176e-05 x337
   - 1.86816e-05 x338 - 1.48256e-05 x339 - 1.17789e-05 x340
   - 6.89947e-05 x341 - 3.44472e-05 x342 - 2.73371e-05 x343
   - 2.17192e-05 x344 - 1.40408840907544e-04 x345 - 7.01023e-05 x346
   - 5.56327e-05 x347 - 4.41999e-05 x348 - 6.6024e-05 x349
   - 3.2964e-05 x350 - 2.616e-05 x351 - 2.0784e-05 x352
   - 1.5767334360950171e-04 x353 - 7.8722e-05 x354 - 6.24733e-05 x355
   - 4.96347e-05 x356 - 1.587257865912152e-04 x357 - 7.92475e-05 x358
   - 6.28903e-05 x359 - 4.9966e-05 x360 - 1.3207665314127244e-04 x361
   - 6.59423e-05 x362 - 5.23314e-05 x363 - 4.1577e-05 x364
   - 1.550353868508735e-04 x365 - 7.7405e-05 x366 - 6.14281e-05 x367
   - 4.88043e-05 x368 - 1.8869935003862622e-04 x369 - 9.42125e-05 x370
   - 7.47664e-05 x371 - 5.94015e-05 x372 - 6.89947e-05 x373
   - 3.44472e-05 x374 - 2.73371e-05 x375 - 2.17192e-05 x376
   - 0.00013766 x377 - 6.87299e-05 x378 - 5.45436e-05 x379
   - 4.33346e-05 x380 - 6.883e-05 x381 - 3.4365e-05 x382 - 2.72718e-05 x383
   - 2.16673e-05 x384 - 9.14475e-05 x385 - 4.56573e-05 x386
   - 3.62333e-05 x387 - 2.87872e-05 x388 - 1.1089635532784654e-04 x389
   - 5.53676e-05 x390 - 4.39393e-05 x391 - 3.49096e-05 x392
   - 6.20654e-05 x393 - 3.09876e-05 x394 - 2.45915e-05 x395
   - 1.95379e-05 x396 - 9.62457e-05 x397 - 4.80529e-05 x398
   - 3.81344e-05 x399 - 3.02976e-05 x400 - 5.40486e-05 x401
   - 2.6985e-05 x402 - 2.14151e-05 x403 - 1.70142e-05 x404
   - 1.3755e-05 x405 - 6.8675e-06 x406 - 5.45e-06 x407 - 4.33e-06 x408
   - 4.37435e-08 x409 - 2.18399e-08 x410 - 1.7332e-08 x411
   - 1.37702e-08 x412 - 7.05342e-08 x413 - 3.52158e-08 x414
   - 2.7947e-08 x415 - 2.22038e-08 x416 - 3.91253e-08 x417
   - 1.95342e-08 x418 - 1.55022e-08 x419 - 1.23164e-08 x420
   - 6.18626e-08 x421 - 3.08863e-08 x422 - 2.45112e-08 x423
   - 1.9474e-08 x424 - 7.05342e-08 x425 - 3.52158e-08 x426
   - 2.7947e-08 x427 - 2.22038e-08 x428 - 5.8688e-08 x429
   - 2.93013e-08 x430 - 2.32533e-08 x431 - 1.84747e-08 x432
   - 4.733e-05 x433 - 2.36306e-05 x434 - 1.87531e-05 x435
   - 1.48992e-05 x436 - 0.000111271 x437 - 5.55546e-05 x438
   - 4.40878e-05 x439 - 3.50275e-05 x440 - 5.34148e-05 x441
   - 2.66685e-05 x442 - 2.1164e-05 x443 - 1.68147e-05 x444
   - 7.23675e-05 x445 - 3.61311e-05 x446 - 2.86734e-05 x447
   - 2.27809e-05 x448 - 9.92269e-05 x449 - 4.95413e-05 x450
   - 3.93156e-05 x451 - 3.12361e-05 x452 - 1.5279817762329497e-04 x453
   - 7.6288e-05 x454 - 6.05416e-05 x455 - 4.81e-05 x456
   - 1.5257513256097796e-04 x457 - 7.61766e-05 x458 - 6.04533e-05 x459
   - 4.80298e-05 x460 - 1.2657589864188207e-04 x461 - 6.31959e-05 x462
   - 5.01518e-05 x463 - 3.98454e-05 x464 - 1.4642454313741257e-04 x465
   - 7.31058e-05 x466 - 5.80163e-05 x467 - 4.60937e-05 x468
   - 9.73403e-05 x469 - 4.85994e-05 x470 - 3.85681e-05 x471
   - 3.06422e-05 x472 - 6.96498e-05 x473 - 3.47742e-05 x474
   - 2.75966e-05 x475 - 2.19254e-05 x476 - 9.93793e-05 x477
   - 4.96174e-05 x478 - 3.9376e-05 x479 - 3.12841e-05 x480
   - 7.17373e-05 x481 - 3.58165e-05 x482 - 2.84237e-05 x483
   - 2.25825e-05 x484 - 1.4891018410437883e-04 x485 - 7.43468e-05 x486
   - 5.90011e-05 x487 - 4.68761e-05 x488 - 9.58122e-05 x489
   - 4.78365e-05 x490 - 3.79627e-05 x491 - 3.01612e-05 x492
   - 6.05845e-05 x493 - 3.02482e-05 x494 - 2.40048e-05 x495
   - 1.90717e-05 x496 = 0
 c_e_x497_: x5 - 7.82507e-08 x498 - 3.90684e-08 x499 - 3.10044e-08 x500
   - 2.46329e-08 x501 - 2.0141e-07 x502 - 1.00559e-07 x503
   - 7.98026e-08 x504 - 6.34028e-08 x505 - 2.35566e-07 x506
   - 1.17612e-07 x507 - 9.33357e-08 x508 - 7.41548e-08 x509
   - 2.9082e-07 x510 - 1.45199e-07 x511 - 1.15229e-07 x512
   - 9.15486e-08 x513 - 2.10696e-07 x514 - 1.05195e-07 x515
   - 8.3482e-08 x516 - 6.63261e-08 x517 - 2.0141e-07 x518
   - 1.00559e-07 x519 - 7.98026e-08 x520 - 6.34028e-08 x521
   - 1.80359e-07 x522 - 9.00483e-08 x523 - 7.14617e-08 x524
   - 5.6776e-08 x525 - 2.15189e-07 x526 - 1.07438e-07 x527
   - 8.52622e-08 x528 - 6.77404e-08 x529 - 4.37435e-08 x530
   - 2.18399e-08 x531 - 1.7332e-08 x532 - 1.37702e-08 x533
   - 8.74869e-08 x534 - 4.36798e-08 x535 - 3.4664e-08 x536
   - 2.75404e-08 x537 - 1.10663e-07 x538 - 5.52511e-08 x539
   - 4.38469e-08 x540 - 3.48362e-08 x541 - 9.78133e-08 x542
   - 4.88356e-08 x543 - 3.87556e-08 x544 - 3.07911e-08 x545
   - 6.18626e-08 x546 - 3.08863e-08 x547 - 2.45112e-08 x548
   - 1.9474e-08 x549 - 2.76658e-08 x550 - 1.38128e-08 x551
   - 1.09617e-08 x552 - 8.70904e-09 x553 - 6.18626e-08 x554
   - 3.08863e-08 x555 - 2.45112e-08 x556 - 1.9474e-08 x557
   - 1.10663e-07 x558 - 5.52511e-08 x559 - 4.38469e-08 x560
   - 3.48362e-08 x561 - 8.06589e-08 x562 - 4.02708e-08 x563
   - 3.19586e-08 x564 - 2.5391e-08 x565 - 2.76658e-08 x566
   - 1.38128e-08 x567 - 1.09617e-08 x568 - 8.70904e-09 x569
   - 5.53316e-08 x570 - 2.76256e-08 x571 - 2.19235e-08 x572
   - 1.74181e-08 x573 - 4.37435e-08 x574 - 2.18399e-08 x575
   - 1.7332e-08 x576 - 1.37702e-08 x577 - 3.74176e-05 x578
   - 1.86816e-05 x579 - 1.48256e-05 x580 - 1.17789e-05 x581
   - 6.89947e-05 x582 - 3.44472e-05 x583 - 2.73371e-05 x584
   - 2.17192e-05 x585 - 1.40408840907544e-04 x586 - 7.01023e-05 x587
   - 5.56327e-05 x588 - 4.41999e-05 x589 - 6.6024e-05 x590
   - 3.2964e-05 x591 - 2.616e-05 x592 - 2.0784e-05 x593
   - 1.5767334360950171e-04 x594 - 7.8722e-05 x595 - 6.24733e-05 x596
   - 4.96347e-05 x597 - 1.587257865912152e-04 x598 - 7.92475e-05 x599
   - 6.28903e-05 x600 - 4.9966e-05 x601 - 1.3207665314127244e-04 x602
   - 6.59423e-05 x603 - 5.23314e-05 x604 - 4.1577e-05 x605
   - 1.550353868508735e-04 x606 - 7.7405e-05 x607 - 6.14281e-05 x608
   - 4.88043e-05 x609 - 1.8869935003862622e-04 x610 - 9.42125e-05 x611
   - 7.47664e-05 x612 - 5.94015e-05 x613 - 6.89947e-05 x614
   - 3.44472e-05 x615 - 2.73371e-05 x616 - 2.17192e-05 x617
   - 0.00013766 x618 - 6.87299e-05 x619 - 5.45436e-05 x620
   - 4.33346e-05 x621 - 6.883e-05 x622 - 3.4365e-05 x623 - 2.72718e-05 x624
   - 2.16673e-05 x625 - 9.14475e-05 x626 - 4.56573e-05 x627
   - 3.62333e-05 x628 - 2.87872e-05 x629 - 1.1089635532784654e-04 x630
   - 5.53676e-05 x631 - 4.39393e-05 x632 - 3.49096e-05 x633
   - 6.20654e-05 x634 - 3.09876e-05 x635 - 2.45915e-05 x636
   - 1.95379e-05 x637 - 9.62457e-05 x638 - 4.80529e-05 x639
   - 3.81344e-05 x640 - 3.02976e-05 x641 - 5.40486e-05 x642
   - 2.6985e-05 x643 - 2.14151e-05 x644 - 1.70142e-05 x645
   - 1.3755e-05 x646 - 6.8675e-06 x647 - 5.45e-06 x648 - 4.33e-06 x649
   - 4.37435e-08 x650 - 2.18399e-08 x651 - 1.7332e-08 x652
   - 1.37702e-08 x653 - 7.05342e-08 x654 - 3.52158e-08 x655
   - 2.7947e-08 x656 - 2.22038e-08 x657 - 3.91253e-08 x658
   - 1.95342e-08 x659 - 1.55022e-08 x660 - 1.23164e-08 x661
   - 6.18626e-08 x662 - 3.08863e-08 x663 - 2.45112e-08 x664
   - 1.9474e-08 x665 - 7.05342e-08 x666 - 3.52158e-08 x667
   - 2.7947e-08 x668 - 2.22038e-08 x669 - 5.8688e-08 x670
   - 2.93013e-08 x671 - 2.32533e-08 x672 - 1.84747e-08 x673
   - 4.733e-05 x674 - 2.36306e-05 x675 - 1.87531e-05 x676
   - 1.48992e-05 x677 - 0.000111271 x678 - 5.55546e-05 x679
   - 4.40878e-05 x680 - 3.50275e-05 x681 - 5.34148e-05 x682
   - 2.66685e-05 x683 - 2.1164e-05 x684 - 1.68147e-05 x685
   - 7.23675e-05 x686 - 3.61311e-05 x687 - 2.86734e-05 x688
   - 2.27809e-05 x689 - 9.92269e-05 x690 - 4.95413e-05 x691
   - 3.93156e-05 x692 - 3.12361e-05 x693 - 1.5279817762329497e-04 x694
   - 7.6288e-05 x695 - 6.05416e-05 x696 - 4.81e-05 x697
   - 1.5257513256097796e-04 x698 - 7.61766e-05 x699 - 6.04533e-05 x700
   - 4.80298e-05 x701 - 1.2657589864188207e-04 x702 - 6.31959e-05 x703
   - 5.01518e-05 x704 - 3.98454e-05 x705 - 1.4642454313741257e-04 x706
   - 7.31058e-05 x707 - 5.80163e-05 x708 - 4.60937e-05 x709
   - 9.73403e-05 x710 - 4.85994e-05 x711 - 3.85681e-05 x712
   - 3.06422e-05 x713 - 6.96498e-05 x714 - 3.47742e-05 x715
   - 2.75966e-05 x716 - 2.19254e-05 x717 - 9.93793e-05 x718
   - 4.96174e-05 x719 - 3.9376e-05 x720 - 3.12841e-05 x721
   - 7.17373e-05 x722 - 3.58165e-05 x723 - 2.84237e-05 x724
   - 2.25825e-05 x725 - 1.4891018410437883e-04 x726 - 7.43468e-05 x727
   - 5.90011e-05 x728 - 4.68761e-05 x729 - 9.58122e-05 x730
   - 4.78365e-05 x731 - 3.79627e-05 x732 - 3.01612e-05 x733
   - 6.05845e-05 x734 - 3.02482e-05 x735 - 2.40048e-05 x736
   - 1.90717e-05 x737 = 0
 c_u_x738_: 4.321942375150668 x2 + 4.321942375150668 x3 + 131400 x4
   + 131400 x5 <= 2.1536977951863244e+08
 c_e_x739_: x740 - x741 - x742 - x743 - x744 = 0
 c_e_x745_: x746 - x747 - x748 - x749 - x750 = 0
 c_e_x751_: x752 - x753 - x754 - x755 - x756 = 0
 c_e_x757_: x758 - x759 - x760 - x761 - x762 = 0
 c_e_x763_: x764 - x765 - x766 - x767 - x768 = 0
 c_e_x769_: x770 - x771 - x772 - x773 - x774 = 0
 c_e_x775_: x776 - x777 - x778 - x779 - x780 = 0
 c_e_x781_: x782 - x783 - x784 - x785 - x786 = 0
 c_e_x787_: x788 - x789 - x790 - x791 - x792 = 0
 c_e_x793_: x794 - x795 - x796 - x797 - x798 = 0
 c_e_x799_: x800 - x801 - x802 - x803 - x804 = 0
 c_e_x805_: x806 - x807 - x808 - x809 - x810 = 0
 c_e_x811_: x812 - x813 - x814 - x815 - x816 = 0
 c_e_x817_: x818 - x819 - x820 - x821 - x822 = 0
 c_e_x823_: x824 - x825 - x826 - x827 - x828 = 0
 c_e_x829_: x830 - x831 - x832 - x833 - x834 = 0
 c_e_x835_: x836 - x837 - x838 - x839 - x840 = 0
 c_e_x841_: x842 - x843 - x844 - x845 - x846 = 0
 c_e_x847_: x848 - x849 - x850 - x851 - x852 = 0
 c_e_x853_: x854 - x855 - x856 - x857 - x858 = 0
 c_e_x859_: x860 - x861 - x862 - x863 - x864 = 0
 c_e_x865_: x866 - x867 - x868 - x869 - x870 = 0
 c_e_x871_: x872 - x873 - x874 - x875 - x876 = 0
 c_e_x877_: x878 - x879 - x880 - x881 - x882 = 0
 c_e_x883_: x884 - x885 - x886 - x887 - x888 = 0
 c_e_x889_: x890 - x891 - x892 - x893 - x894 = 0
 c_e_x895_: x896 - x897 - x898 - x899 - x900 = 0
 c_e_x901_: x902 - x903 - x904 - x905 - x906 = 0
 c_e_x907_: x908 - x909 - x910 - x911 - x912 = 0
 c_e_x913_: x914 - x915 - x916 - x917 - x918 = 0
 c_e_x919_: x920 - x921 - x922 - x923 - x924 = 0
 c_e_x925_: x926 - x927 - x928 - x929 - x930 = 0
 c_e_x931_: x932 - x933 - x934 - x935 - x936 = 0
 c_e_x937_: x938 - x939 - x940 - x941 - x942 = 0
 c_e_x943_: x944 - x945 - x946 - x947 - x948 = 0
 c_e_x949_: x950 - x951 - x952 - x953 - x954 = 0
 c_e_x955_: x956 - x957 - x958 - x959 - x960 = 0
 c_e_x961_: x962 - x963 - x964 - x965 - x966 = 0
 c_e_x967_: x968 - x969 - x970 - x971 - x972 = 0
 c_e_x973_: x974 - x975 - x976 - x977 - x978 = 0
 c_e_x979_: x980 - x981 - x982 - x983 - x984 = 0
 c_e_x985_: x986 - x987 - x988 - x989 - x990 = 0
 c_e_x991_: x992 - x993 - x994 - x995 - x996 = 0
 c_e_x997_: x998 - x999 - x1000 - x1001 - x1002 = 0
 c_e_x1003_: x1004 - x1005 - x1006 - x1007 - x1008 = 0
 c_e_x1009_: x1010 - x1011 - x1012 - x1013 - x1014 = 0
 c_e_x1015_: x1016 - x1017 - x1018 - x1019 - x1020 = 0
 c_e_x1021_: x1022 - x1023 - x1024 - x1025 - x1026 = 0
 c_e_x1027_: x1028 - x1029 - x1030 - x1031 - x1032 = 0
 c_e_x1033_: x1034 - x1035 - x1036 - x1037 - x1038 = 0
 c_e_x1039_: x1040 - x1041 - x1042 - x1043 - x1044 = 0
 c_e_x1045_: x1046 - x1047 - x1048 - x1049 - x1050 = 0
 c_e_x1051_: x1052 - x1053 - x1054 - x1055 - x1056 = 0
 c_e_x1057_: x1058 - x1059 - x1060 - x1061 - x1062 = 0
 c_e_x1063_: x1064 - x1065 - x1066 - x1067 - x1068 = 0
 c_e_x1069_: x1070 - x1071 - x1072 - x1073 - x1074 = 0
 c_e_x1075_: x1076 - x1077 - x1078 - x1079 - x1080 = 0
 c_e_x1081_: x1082 - x1083 - x1084 - x1085 - x1086 = 0
 c_e_x1087_: x1088 - x1089 - x1090 - x1091 - x1092 = 0
 c_e_x1093_: x1094 - x1095 - x1096 - x1097 - x1098 = 0
 c_e_x1099_: x1100 - x1101 - x1102 - x1103 - x1104 = 0
 c_e_x1105_: x1106 - x1107 - x1108 - x1109 - x1110 = 0
 c_e_x1111_: x1112 - x1113 - x1114 - x1115 - x1116 = 0
 c_e_x1117_: x1118 - x1119 - x1120 - x1121 - x1122 = 0
 c_e_x1123_: x1124 - x1125 - x1126 - x1127 - x1128 = 0
 c_e_x1129_: x1130 - x1131 - x1132 - x1133 - x1134 = 0
 c_e_x1135_: x1136 - x1137 - x1138 - x1139 - x1140 = 0
 c_e_x1141_: x1142 - x1143 - x1144 - x1145 - x1146 = 0
 c_e_x1147_: x1148 - x1149 - x1150 - x1151 - x1152 = 0
 c_e_x1153_: x1154 - x1155 - x1156 - x1157 - x1158 = 0
 c_e_x1159_: x1160 - x1161 - x1162 - x1163 - x1164 = 0
 c_e_x1165_: x1166 - x1167 - x1168 - x1169 - x1170 = 0
 c_e_x1171_: x1172 - x1173 - x1174 - x1175 - x1176 = 0
 c_e_x1177_: x1178 - x1179 - x1180 - x1181 - x1182 = 0
 c_e_x1183_: x1184 - x1185 - x1186 - x1187 - x1188 = 0
 c_e_x1189_: x1190 - x1191 - x1192 - x1193 - x1194 = 0
 c_e_x1195_: x1196 - x1197 - x1198 - x1199 - x1200 = 0
 c_e_x1201_: x1202 - x1203 - x1204 - x1205 - x1206 = 0
 c_e_x1207_: x1208 - x1209 - x1210 - x1211 - x1212 = 0
 c_e_x1213_: x1214 - x1215 - x1216 - x1217 - x1218 = 0
 c_e_x1219_: x1220 - x1221 - x1222 - x1223 - x1224 = 0
 c_e_x1225_: x1226 - x1227 - x1228 - x1229 - x1230 = 0
 c_e_x1231_: x1232 - x1233 - x1234 - x1235 - x1236 = 0
 c_e_x1237_: x1238 - x1239 - x1240 - x1241 - x1242 = 0
 c_e_x1243_: x1244 - x1245 - x1246 - x1247 - x1248 = 0
 c_e_x1249_: x1250 - x1251 - x1252 - x1253 - x1254 = 0
 c_e_x1255_: x1256 - x1257 - x1258 - x1259 - x1260 = 0
 c_e_x1261_: x1262 - x1263 - x1264 - x1265 - x1266 = 0
 c_e_x1267_: x1268 - x1269 - x1270 - x1271 - x1272 = 0
 c_e_x1273_: x1274 - x1275 - x1276 - x1277 - x1278 = 0
 c_e_x1279_: x1280 - x1281 - x1282 - x1283 - x1284 = 0
 c_e_x1285_: x1286 - x1287 - x1288 - x1289 - x1290 = 0
 c_e_x1291_: x1292 - x1293 - x1294 - x1295 - x1296 = 0
 c_e_x1297_: x1298 - x1299 - x1300 - x1301 - x1302 = 0
 c_e_x1303_: x1304 - x1305 - x1306 - x1307 - x1308 = 0
 c_e_x1309_: x1310 - x1311 - x1312 - x1313 - x1314 = 0
 c_e_x1315_: x1316 - x1317 - x1318 - x1319 - x1320 = 0
 c_e_x1321_: x1322 - x1323 - x1324 - x1325 - x1326 = 0
 c_e_x1327_: x1328 - x1329 - x1330 - x1331 - x1332 = 0
 c_e_x1333_: x1334 - x1335 - x1336 - x1337 - x1338 = 0
 c_e_x1339_: x1340 - x1341 - x1342 - x1343 - x1344 = 0
 c_e_x1345_: x1346 - x1347 - x1348 - x1349 - x1350 = 0
 c_e_x1351_: x1352 - x1353 - x1354 - x1355 - x1356 = 0
 c_e_x1357_: x1358 - x1359 - x1360 - x1361 - x1362 = 0
 c_e_x1363_: x1364 - x1365 - x1366 - x1367 - x1368 = 0
 c_e_x1369_: x1370 - x1371 - x1372 - x1373 - x1374 = 0
 c_e_x1375_: x1376 - x1377 - x1378 - x1379 - x1380 = 0
 c_e_x1381_: x1382 - x1383 - x1384 - x1385 - x1386 = 0
 c_e_x1387_: x1388 - x1389 - x1390 - x1391 - x1392 = 0
 c_e_x1393_: x1394 - x1395 - x1396 - x1397 - x1398 = 0
 c_e_x1399_: x1400 - x1401 - x1402 - x1403 - x1404 = 0
 c_e_x1405_: x1406 - x1407 - x1408 - x1409 - x1410 = 0
 c_e_x1411_: x1412 - x1413 - x1414 - x1415 - x1416 = 0
 c_e_x1417_: x1418 - x1419 - x1420 - x1421 - x1422 = 0
 c_e_x1423_: x1424 - x1425 - x1426 - x1427 - x1428 = 0
 c_e_x1429_: x1430 - x1431 - x1432 - x1433 - x1434 = 0
 c_e_x1435_: x1436 - x1437 - x1438 - x1439 - x1440 = 0
 c_e_x1441_: x1442 - x1443 - x1444 - x1445 - x1446 = 0
 c_e_x1447_: x1448 - x1449 - x1450 - x1451 - x1452 = 0
 c_e_x1453_: x1454 - x1455 - x1456 - x1457 - x1458 = 0
 c_e_x1459_: x1460 - x1461 - x1462 - x1463 - x1464 = 0
 c_e_x1465_: x1466 - x1467 - x1468 - x1469 - x1470 = 0
 c_e_x1471_: x1472 - x1473 - x1474 - x1475 - x1476 = 0
 c_e_x1477_: x1478 - x1479 - x1480 - x1481 - x1482 = 0
 c_e_x1483_: x1484 - x1485 - x1486 - x1487 - x1488 = 0
 c_e_x1489_: x1490 - x1491 - x1492 - x1493 - x1494 = 0
 c_e_x1495_: x1496 - x1497 - x1498 - x1499 - x1500 = 0
 c_e_x1501_: x1502 - x1503 - x1504 - x1505 - x1506 = 0
 c_e_x1507_: x1508 - x1509 - x1510 - x1511 - x1512 = 0
 c_e_x1513_: x1514 - x1515 - x1516 - x1517 - x1518 = 0
 c_e_x1519_: x1520 - x1521 - x1522 - x1523 - x1524 = 0
 c_e_x1525_: x1526 - x1527 - x1528 - x1529 - x1530 = 0
 c_e_x1531_: x1532 - x1533 - x1534 - x1535 - x1536 = 0
 c_e_x1537_: x1538 - x1539 - x1540 - x1541 - x1542 = 0
 c_e_x1543_: x1544 - x1545 - x1546 - x1547 - x1548 = 0
 c_e_x1549_: x1550 - x1551 - x1552 - x1553 - x1554 = 0
 c_e_x1555_: x1556 - x1557 - x1558 - x1559 - x1560 = 0
 c_e_x1561_: x1562 - x1563 - x1564 - x1565 - x1566 = 0
 c_e_x1567_: x1568 - x1569 - x1570 - x1571 - x1572 = 0
 c_e_x1573_: x1574 - x1575 - x1576 - x1577 - x1578 = 0
 c_e_x1579_: x1580 - x1581 - x1582 - x1583 - x1584 = 0
 c_e_x1585_: x1586 - x1587 - x1588 - x1589 - x1590 = 0
 c_e_x1591_: x1592 - x1593 - x1594 - x1595 - x1596 = 0
 c_e_x1597_: x1598 - x1599 - x1600 - x1601 - x1602 = 0
 c_e_x1603_: x1604 - x1605 - x1606 - x1607 - x1608 = 0
 c_e_x1609_: x1610 - x1611 - x1612 - x1613 - x1614 = 0
 c_e_x1615_: x1616 - x1617 - x1618 - x1619 - x1620 = 0
 c_e_x1621_: x1622 - x1623 - x1624 - x1625 - x1626 = 0
 c_e_x1627_: x1628 - x1629 - x1630 - x1631 - x1632 = 0
 c_e_x1633_: x1634 - x1635 - x1636 - x1637 - x1638 = 0
 c_e_x1639_: x1640 - x1641 - x1642 - x1643 - x1644 = 0
 c_e_x1645_: x1646 - x1647 - x1648 - x1649 - x1650 = 0
 c_e_x1651_: x1652 - x1653 - x1654 - x1655 - x1656 = 0
 c_e_x1657_: x1658 - x1659 - x1660 - x1661 - x1662 = 0
 c_e_x1663_: x1664 - x1665 - x1666 - x1667 - x1668 = 0
 c_e_x1669_: x1670 - x1671 - x1672 - x1673 - x1674 = 0
 c_e_x1675_: x1676 - x1677 - x1678 - x1679 - x1680 = 0
 c_e_x1681_: x1682 - x1683 - x1684 - x1685 - x1686 = 0
 c_e_x1687_: x1688 - x1689 - x1690 - x1691 - x1692 = 0
 c_e_x1693_: x1694 - x1695 - x1696 - x1697 - x1698 = 0
 c_e_x1699_: x1700 - x1701 - x1702 - x1703 - x1704 = 0
 c_e_x1705_: x1706 - x1707 - x1708 - x1709 - x1710 = 0
 c_e_x1711_: x1712 - x1713 - x1714 - x1715 - x1716 = 0
 c_e_x1717_: x1718 - x1719 - x1720 - x1721 - x1722 = 0
 c_e_x1723_: x1724 - x1725 - x1726 - x1727 - x1728 = 0
 c_e_x1729_: x1730 - x1731 - x1732 - x1733 - x1734 = 0
 c_e_x1735_: x1736 - x1737 - x1738 - x1739 - x1740 = 0
 c_e_x1741_: x1742 - x1743 - x1744 - x1745 - x1746 = 0
 c_e_x1747_: x1748 - x1749 - x1750 - x1751 - x1752 = 0
 c_e_x1753_: x1754 - x1755 - x1756 - x1757 - x1758 = 0
 c_e_x1759_: x1760 - x1761 - x1762 - x1763 - x1764 = 0
 c_e_x1765_: x1766 - x1767 - x1768 - x1769 - x1770 = 0
 c_e_x1771_: x1772 - x1773 - x1774 - x1775 - x1776 = 0
 c_e_x1777_: x1778 - x1779 - x1780 - x1781 - x1782 = 0
 c_e_x1783_: x1784 - x1785 - x1786 - x1787 - x1788 = 0
 c_e_x1789_: x1790 - x1791 - x1792 - x1793 - x1794 = 0
 c_e_x1795_: x1796 - x1797 - x1798 - x1799 - x1800 = 0
 c_e_x1801_: x1802 - x1803 - x1804 - x1805 - x1806 = 0
 c_e_x1807_: x1808 - x1809 - x1810 - x1811 - x1812 = 0
 c_e_x1813_: x1814 - x1815 - x1816 - x1817 - x1818 = 0
 c_e_x1819_: x1820 - x1821 - x1822 - x1823 - x1824 = 0
 c_e_x1825_: x1826 - x1827 - x1828 - x1829 - x1830 = 0
 c_e_x1831_: x1832 - x1833 - x1834 - x1835 - x1836 = 0
 c_e_x1837_: x1838 - x1839 - x1840 - x1841 - x1842 = 0
 c_e_x1843_: x1844 - x1845 - x1846 - x1847 - x1848 = 0
 c_e_x1849_: x1850 - x1851 - x1852 - x1853 - x1854 = 0
 c_e_x1855_: x1856 - x1857 - x1858 - x1859 - x1860 = 0
 c_e_x1861_: x1862 - x1863 - x1864 - x1865 - x1866 = 0
 c_e_x1867_: x1868 - x1869 - x1870 - x1871 - x1872 = 0
 c_e_x1873_: x1874 - x1875 - x1876 - x1877 - x1878 = 0
 c_e_x1879_: x1880 - x1881 - x1882 - x1883 - x1884 = 0
 c_e_x1885_: x1886 - x1887 - x1888 - x1889 - x1890 = 0
 c_e_x1891_: x1892 - x1893 - x1894 - x1895 - x1896 = 0
 c_e_x1897_: x1898 - x1899 - x1900 - x1901 - x1902 = 0
 c_e_x1903_: x1904 - x1905 - x1906 - x1907 - x1908 = 0
 c_e_x1909_: x1910 - x1911 - x1912 - x1913 - x1914 = 0
 c_e_x1915_: x1916 - x1917 - x1918 - x1919 - x1920 = 0
 c_e_x1921_: x1922 - x1923 - x1924 - x1925 - x1926 = 0
 c_e_x1927_: x1928 - x1929 - x1930 - x1931 - x1932 = 0
 c_e_x1933_: x1934 - x1935 - x1936 - x1937 - x1938 = 0
 c_e_x1939_: x1940 - x1941 - x1942 - x1943 - x1944 = 0
 c_e_x1945_: x1946 - x1947 - x1948 - x1949 - x1950 = 0
 c_e_x1951_: x1952 - x1953 - x1954 - x1955 - x1956 = 0
 c_e_x1957_: x1958 - x1959 - x1960 - x1961 - x1962 = 0
 c_e_x1963_: x1964 - x1965 - x1966 - x1967 - x1968 = 0
 c_e_x1969_: x1970 - x1971 - x1972 - x1973 - x1974 = 0
 c_e_x1975_: x1976 - x1977 - x1978 - x1979 - x1980 = 0
 c_e_x1981_: x1982 - x1983 - x1984 - x1985 - x1986 = 0
 c_e_x1987_: x1988 - x1989 - x1990 - x1991 - x1992 = 0
 c_e_x1993_: x1994 - x1995 - x1996 - x1997 - x1998 = 0
 c_e_x1999_: x2000 - x2001 - x2002 - x2003 - x2004 = 0
 c_e_x2005_: x2006 - x2007 - x2008 - x2009 - x2010 = 0
 c_e_x2011_: x2012 - x2013 - x2014 - x2015 - x2016 = 0
 c_e_x2017_: x2018 - x2019 - x2020 - x2021 - x2022 = 0
 c_e_x2023_: x2024 - x2025 - x2026 - x2027 - x2028 = 0
 c_e_x2029_: x2030 - x2031 - x2032 - x2033 - x2034 = 0
 c_e_x2035_: x2036 - x2037 - x2038 - x2039 - x2040 = 0
 c_e_x2041_: x2042 - x2043 - x2044 - x2045 - x2046 = 0
 c_e_x2047_: x2048 - x2049 - x2050 - x2051 - x2052 = 0
 c_e_x2053_: x2054 - x2055 - x2056 - x2057 - x2058 = 0
 c_e_x2059_: x2060 - x2061 - x2062 - x2063 - x2064 = 0
 c_e_x2065_: x2066 - x2067 - x2068 - x2069 - x2070 = 0
 c_e_x2071_: x2072 - x2073 - x2074 - x2075 - x2076 = 0
 c_e_x2077_: x2078 - x2079 - x2080 - x2081 - x2082 = 0
 c_e_x2083_: x2084 - x2085 - x2086 - x2087 - x2088 = 0
 c_e_x2089_: x2090 - x2091 - x2092 - x2093 - x2094 = 0
 c_e_x2095_: x2096 - x2097 - x2098 - x2099 - x2100 = 0
 c_e_x2101_: x2102 - x2103 - x2104 - x2105 - x2106 = 0
 c_e_x2107_: x2108 - x2109 - x2110 - x2111 - x2112 = 0
 c_e_x2113_: x2114 - x2115 - x2116 - x2117 - x2118 = 0
 c_e_x2119_: x2120 - x2121 - x2122 - x2123 - x2124 = 0
 c_e_x2125_: x2126 - x2127 - x2128 - x2129 - x2130 = 0
 c_e_x2131_: x2132 - x2133 - x2134 - x2135 - x2136 = 0
 c_e_x2137_: x2138 - x2139 - x2140 - x2141 - x2142 = 0
 c_e_x2143_: x2144 - x2145 - x2146 - x2147 - x2148 = 0
 c_e_x2149_: x2150 - x2151 - x2152 - x2153 - x2154 = 0
 c_e_x2155_: x2156 - x2157 - x2158 - x2159 - x2160 = 0
 c_e_x2161_: x2162 - x2163 - x2164 - x2165 - x2166 = 0
 c_e_x2167_: x2168 - x2169 - x2170 - x2171 - x2172 = 0
 c_e_x2173_: x2174 - x2175 - x2176 - x2177 - x2178 = 0
 c_e_x2179_: - x257 - x258 - x259 - x260 + x2180 = 0
 c_e_x2181_: - x261 - x262 - x263 - x264 + x2182 = 0
 c_e_x2183_: - x265 - x266 - x267 - x268 + x2184 = 0
 c_e_x2185_: - x269 - x270 - x271 - x272 + x2186 = 0
 c_e_x2187_: - x273 - x274 - x275 - x276 + x2188 = 0
 c_e_x2189_: - x277 - x278 - x279 - x280 + x2190 = 0
 c_e_x2191_: - x281 - x282 - x283 - x284 + x2192 = 0
 c_e_x2193_: - x285 - x286 - x287 - x288 + x2194 = 0
 c_e_x2195_: - x289 - x290 - x291 - x292 + x2196 = 0
 c_e_x2197_: - x293 - x294 - x295 - x296 + x2198 = 0
 c_e_x2199_: - x297 - x298 - x299 - x300 + x2200 = 0
 c_e_x2201_: - x301 - x302 - x303 - x304 + x2202 = 0
 c_e_x2203_: - x305 - x306 - x307 - x308 + x2204 = 0
 c_e_x2205_: - x309 - x310 - x311 - x312 + x2206 = 0
 c_e_x2207_: - x313 - x314 - x315 - x316 + x2208 = 0
 c_e_x2209_: - x317 - x318 - x319 - x320 + x2210 = 0
 c_e_x2211_: - x321 - x322 - x323 - x324 + x2212 = 0
 c_e_x2213_: - x325 - x326 - x327 - x328 + x2214 = 0
 c_e_x2215_: - x329 - x330 - x331 - x332 + x2216 = 0
 c_e_x2217_: - x333 - x334 - x335 - x336 + x2218 = 0
 c_e_x2219_: - x337 - x338 - x339 - x340 + x2220 = 0
 c_e_x2221_: - x341 - x342 - x343 - x344 + x2222 = 0
 c_e_x2223_: - x345 - x346 - x347 - x348 + x2224 = 0
 c_e_x2225_: - x349 - x350 - x351 - x352 + x2226 = 0
 c_e_x2227_: - x353 - x354 - x355 - x356 + x2228 = 0
 c_e_x2229_: - x357 - x358 - x359 - x360 + x2230 = 0
 c_e_x2231_: - x361 - x362 - x363 - x364 + x2232 = 0
 c_e_x2233_: - x365 - x366 - x367 - x368 + x2234 = 0
 c_e_x2235_: - x369 - x370 - x371 - x372 + x2236 = 0
 c_e_x2237_: - x373 - x374 - x375 - x376 + x2238 = 0
 c_e_x2239_: - x377 - x378 - x379 - x380 + x2240 = 0
 c_e_x2241_: - x381 - x382 - x383 - x384 + x2242 = 0
 c_e_x2243_: - x385 - x386 - x387 - x388 + x2244 = 0
 c_e_x2245_: - x389 - x390 - x391 - x392 + x2246 = 0
 c_e_x2247_: - x393 - x394 - x395 - x396 + x2248 = 0
 c_e_x2249_: - x397 - x398 - x399 - x400 + x2250 = 0
 c_e_x2251_: - x401 - x402 - x403 - x404 + x2252 = 0
 c_e_x2253_: - x405 - x406 - x407 - x408 + x2254 = 0
 c_e_x2255_: - x409 - x410 - x411 - x412 + x2256 = 0
 c_e_x2257_: - x413 - x414 - x415 - x416 + x2258 = 0
 c_e_x2259_: - x417 - x418 - x419 - x420 + x2260 = 0
 c_e_x2261_: - x421 - x422 - x423 - x424 + x2262 = 0
 c_e_x2263_: - x425 - x426 - x427 - x428 + x2264 = 0
 c_e_x2265_: - x429 - x430 - x431 - x432 + x2266 = 0
 c_e_x2267_: - x433 - x434 - x435 - x436 + x2268 = 0
 c_e_x2269_: - x437 - x438 - x439 - x440 + x2270 = 0
 c_e_x2271_: - x441 - x442 - x443 - x444 + x2272 = 0
 c_e_x2273_: - x445 - x446 - x447 - x448 + x2274 = 0
 c_e_x2275_: - x449 - x450 - x451 - x452 + x2276 = 0
 c_e_x2277_: - x453 - x454 - x455 - x456 + x2278 = 0
 c_e_x2279_: - x457 - x458 - x459 - x460 + x2280 = 0
 c_e_x2281_: - x461 - x462 - x463 - x464 + x2282 = 0
 c_e_x2283_: - x465 - x466 - x467 - x468 + x2284 = 0
 c_e_x2285_: - x469 - x470 - x471 - x472 + x2286 = 0
 c_e_x2287_: - x473 - x474 - x475 - x476 + x2288 = 0
 c_e_x2289_: - x477 - x478 - x479 - x480 + x2290 = 0
 c_e_x2291_: - x481 - x482 - x483 - x484 + x2292 = 0
 c_e_x2293_: - x485 - x486 - x487 - x488 + x2294 = 0
 c_e_x2295_: - x489 - x490 - x491 - x492 + x2296 = 0
 c_e_x2297_: - x493 - x494 - x495 - x496 + x2298 = 0
 c_e_x2299_: - x498 - x499 - x500 - x501 + x2300 = 0
 c_e_x2301_: - x502 - x503 - x504 - x505 + x2302 = 0
 c_e_x2303_: - x506 - x507 - x508 - x509 + x2304 = 0
 c_e_x2305_: - x510 - x511 - x512 - x513 + x2306 = 0
 c_e_x2307_: - x514 - x515 - x516 - x517 + x2308 = 0
 c_e_x2309_: - x518 - x519 - x520 - x521 + x2310 = 0
 c_e_x2311_: - x522 - x523 - x524 - x525 + x2312 = 0
 c_e_x2313_: - x526 - x527 - x528 - x529 + x2314 = 0
 c_e_x2315_: - x530 - x531 - x532 - x533 + x2316 = 0
 c_e_x2317_: - x534 - x535 - x536 - x537 + x2318 = 0
 c_e_x2319_: - x538 - x539 - x540 - x541 + x2320 = 0
 c_e_x2321_: - x542 - x543 - x544 - x545 + x2322 = 0
 c_e_x2323_: - x546 - x547 - x548 - x549 + x2324 = 0
 c_e_x2325_: - x550 - x551 - x552 - x553 + x2326 = 0
 c_e_x2327_: - x554 - x555 - x556 - x557 + x2328 = 0
 c_e_x2329_: - x558 - x559 - x560 - x561 + x2330 = 0
 c_e_x2331_: - x562 - x563 - x564 - x565 + x2332 = 0
 c_e_x2333_: - x566 - x567 - x568 - x569 + x2334 = 0
 c_e_x2335_: - x570 - x571 - x572 - x573 + x2336 = 0
 c_e_x2337_: - x574 - x575 - x576 - x577 + x2338 = 0
 c_e_x2339_: - x578 - x579 - x580 - x581 + x2340 = 0
 c_e_x2341_: - x582 - x583 - x584 - x585 + x2342 = 0
 c_e_x2343_: - x586 - x587 - x588 - x589 + x2344 = 0
 c_e_x2345_: - x590 - x591 - x592 - x593 + x2346 = 0
 c_e_x2347_: - x594 - x595 - x596 - x597 + x2348 = 0
 c_e_x2349_: - x598 - x599 - x600 - x601 + x2350 = 0
 c_e_x2351_: - x602 - x603 - x604 - x605 + x2352 = 0
 c_e_x2353_: - x606 - x607 - x608 - x609 + x2354 = 0
 c_e_x2355_: - x610 - x611 - x612 - x613 + x2356 = 0
 c_e_x2357_: - x614 - x615 - x616 - x617 + x2358 = 0
 c_e_x2359_: - x618 - x619 - x620 - x621 + x2360 = 0
 c_e_x2361_: - x622 - x623 - x624 - x625 + x2362 = 0
 c_e_x2363_: - x626 - x627 - x628 - x629 + x2364 = 0
 c_e_x2365_: - x630 - x631 - x632 - x633 + x2366 = 0
 c_e_x2367_: - x634 - x635 - x636 - x637 + x2368 = 0
 c_e_x2369_: - x638 - x639 - x640 - x641 + x2370 = 0
 c_e_x2371_: - x642 - x643 - x644 - x645 + x2372 = 0
 c_e_x2373_: - x646 - x647 - x648 - x649 + x2374 = 0
 c_e_x2375_: - x650 - x651 - x652 - x653 + x2376 = 0
 c_e_x2377_: - x654 - x655 - x656 - x657 + x2378 = 0
 c_e_x2379_: - x658 - x659 - x660 - x661 + x2380 = 0
 c_e_x2381_: - x662 - x663 - x664 - x665 + x2382 = 0
 c_e_x2383_: - x666 - x667 - x668 - x669 + x2384 = 0
 c_e_x2385_: - x670 - x671 - x672 - x673 + x2386 = 0
 c_e_x2387_: - x674 - x675 - x676 - x677 + x2388 = 0
 c_e_x2389_: - x678 - x679 - x680 - x681 + x2390 = 0
 c_e_x2391_: - x682 - x683 - x684 - x685 + x2392 = 0
 c_e_x2393_: - x686 - x687 - x688 - x689 + x2394 = 0
 c_e_x2395_: - x690 - x691 - x692 - x693 + x2396 = 0
 c_e_x2397_: - x694 - x695 - x696 - x697 + x2398 = 0
 c_e_x2399_: - x698 - x699 - x700 - x701 + x2400 = 0
 c_e_x2401_: - x702 - x703 - x704 - x705 + x2402 = 0
 c_e_x2403_: - x706 - x707 - x708 - x709 + x2404 = 0
 c_e_x2405_: - x710 - x711 - x712 - x713 + x2406 = 0
 c_e_x2407_: - x714 - x715 - x716 - x717 + x2408 = 0
 c_e_x2409_: - x718 - x719 - x720 - x721 + x2410 = 0
 c_e_x2411_: - x722 - x723 - x724 - x725 + x2412 = 0
 c_e_x2413_: - x726 - x727 - x728 - x729 + x2414 = 0
 c_e_x2415_: - x730 - x731 - x732 - x733 + x2416 = 0
 c_e_x2417_: - x734 - x735 - x736 - x737 + x2418 = 0
 c_e_x2419_: - x741 - x742 - x743 - x744 - x747 - x748 - x749 - x750 - x753
   - x754 - x755 - x756 - x759 - x760 - x761 - x762 + x2420 = 0
 c_e_x2421_: - x765 - x766 - x767 - x768 - x771 - x772 - x773 - x774 - x777
   - x778 - x779 - x780 - x783 - x784 - x785 - x786 + x2422 = 0
 c_e_x2423_: - x1101 - x1102 - x1103 - x1104 - x1107 - x1108 - x1109
   - x1110 - x1113 - x1114 - x1115 - x1116 - x1119 - x1120 - x1121 - x1122
   + x2424 = 0
 c_e_x2425_: - x1125 - x1126 - x1127 - x1128 - x1131 - x1132 - x1133
   - x1134 - x1137 - x1138 - x1139 - x1140 - x1143 - x1144 - x1145 - x1146
   + x2426 = 0
 c_e_x2427_: - x1461 - x1462 - x1463 - x1464 - x1467 - x1468 - x1469
   - x1470 - x1473 - x1474 - x1475 - x1476 - x1479 - x1480 - x1481 - x1482
   + x2428 = 0
 c_e_x2429_: - x1485 - x1486 - x1487 - x1488 - x1491 - x1492 - x1493
   - x1494 - x1497 - x1498 - x1499 - x1500 - x1503 - x1504 - x1505 - x1506
   + x2430 = 0
 c_e_x2431_: - x1821 - x1822 - x1823 - x1824 - x1827 - x1828 - x1829
   - x1830 - x1833 - x1834 - x1835 - x1836 - x1839 - x1840 - x1841 - x1842
   + x2432 = 0
 c_e_x2433_: - x1845 - x1846 - x1847 - x1848 - x1851 - x1852 - x1853
   - x1854 - x1857 - x1858 - x1859 - x1860 - x1863 - x1864 - x1865 - x1866
   + x2434 = 0
 c_e_x2435_: 9.78133e-07 x257 + 4.88356e-07 x258 + 3.87556e-07 x259
   + 3.07911e-07 x260 + 2.6337e-06 x273 + 1.31494e-06 x274
   + 1.04353e-06 x275 + 8.29076e-07 x276 - x741 - x742 - x743 - x744 - x765
   - x766 - x767 - x768 + x789 + x790 + x791 + x792 + x795 + x796 + x797
   + x798 + x801 + x802 + x803 + x804 + x861 + x862 + x863 + x864 + x867
   + x868 + x869 + x870 + x873 + x874 + x875 + x876 + x879 + x880 + x881
   + x882 = 0
 c_e_x2436_: 2.51762e-06 x261 + 1.25698e-06 x262 + 9.97532e-07 x263
   + 7.92535e-07 x264 + 2.51762e-06 x277 + 1.25698e-06 x278
   + 9.97532e-07 x279 + 7.92535e-07 x280 - x747 - x748 - x749 - x750 - x771
   - x772 - x773 - x774 + x807 + x808 + x809 + x810 + x813 + x814 + x815
   + x816 + x819 + x820 + x821 + x822 + x885 + x886 + x887 + x888 + x891
   + x892 + x893 + x894 + x897 + x898 + x899 + x900 + x903 + x904 + x905
   + x906 = 0
 c_e_x2437_: 2.94457e-06 x265 + 1.47014e-06 x266 + 1.1667e-06 x267
   + 9.26935e-07 x268 + 2.25449e-06 x281 + 1.1256e-06 x282
   + 8.93271e-07 x283 + 7.097e-07 x284 - x753 - x754 - x755 - x756 - x777
   - x778 - x779 - x780 + x825 + x826 + x827 + x828 + x831 + x832 + x833
   + x834 + x837 + x838 + x839 + x840 + x909 + x910 + x911 + x912 + x915
   + x916 + x917 + x918 + x921 + x922 + x923 + x924 + x927 + x928 + x929
   + x930 + x933 + x934 + x935 + x936 = 0
 c_e_x2438_: 3.63525e-06 x269 + 1.81498e-06 x270 + 1.44036e-06 x271
   + 1.14436e-06 x272 + 2.68987e-06 x285 + 1.34298e-06 x286
   + 1.06578e-06 x287 + 8.46756e-07 x288 - x759 - x760 - x761 - x762 - x783
   - x784 - x785 - x786 + x843 + x844 + x845 + x846 + x849 + x850 + x851
   + x852 + x855 + x856 + x857 + x858 + x939 + x940 + x941 + x942 + x945
   + x946 + x947 + x948 + x951 + x952 + x953 + x954 + x957 + x958 + x959
   + x960 + x963 + x964 + x965 + x966 = 0
 c_e_x2439_: 9.78133e-07 x498 + 4.88356e-07 x499 + 3.87556e-07 x500
   + 3.07911e-07 x501 + 2.6337e-06 x514 + 1.31494e-06 x515
   + 1.04353e-06 x516 + 8.29076e-07 x517 - x1101 - x1102 - x1103 - x1104
   - x1125 - x1126 - x1127 - x1128 + x1149 + x1150 + x1151 + x1152 + x1155
   + x1156 + x1157 + x1158 + x1161 + x1162 + x1163 + x1164 + x1221 + x1222
   + x1223 + x1224 + x1227 + x1228 + x1229 + x1230 + x1233 + x1234 + x1235
   + x1236 + x1239 + x1240 + x1241 + x1242 = 0
 c_e_x2440_: 2.51762e-06 x502 + 1.25698e-06 x503 + 9.97532e-07 x504
   + 7.92535e-07 x505 + 2.51762e-06 x518 + 1.25698e-06 x519
   + 9.97532e-07 x520 + 7.92535e-07 x521 - x1107 - x1108 - x1109 - x1110
   - x1131 - x1132 - x1133 - x1134 + x1167 + x1168 + x1169 + x1170 + x1173
   + x1174 + x1175 + x1176 + x1179 + x1180 + x1181 + x1182 + x1245 + x1246
   + x1247 + x1248 + x1251 + x1252 + x1253 + x1254 + x1257 + x1258 + x1259
   + x1260 + x1263 + x1264 + x1265 + x1266 = 0
 c_e_x2441_: 2.94457e-06 x506 + 1.47014e-06 x507 + 1.1667e-06 x508
   + 9.26935e-07 x509 + 2.25449e-06 x522 + 1.1256e-06 x523
   + 8.93271e-07 x524 + 7.097e-07 x525 - x1113 - x1114 - x1115 - x1116
   - x1137 - x1138 - x1139 - x1140 + x1185 + x1186 + x1187 + x1188 + x1191
   + x1192 + x1193 + x1194 + x1197 + x1198 + x1199 + x1200 + x1269 + x1270
   + x1271 + x1272 + x1275 + x1276 + x1277 + x1278 + x1281 + x1282 + x1283
   + x1284 + x1287 + x1288 + x1289 + x1290 + x1293 + x1294 + x1295 + x1296
   = 0
 c_e_x2442_: 3.63525e-06 x510 + 1.81498e-06 x511 + 1.44036e-06 x512
   + 1.14436e-06 x513 + 2.68987e-06 x526 + 1.34298e-06 x527
   + 1.06578e-06 x528 + 8.46756e-07 x529 - x1119 - x1120 - x1121 - x1122
   - x1143 - x1144 - x1145 - x1146 + x1203 + x1204 + x1205 + x1206 + x1209
   + x1210 + x1211 + x1212 + x1215 + x1216 + x1217 + x1218 + x1299 + x1300
   + x1301 + x1302 + x1305 + x1306 + x1307 + x1308 + x1311 + x1312 + x1313
   + x1314 + x1317 + x1318 + x1319 + x1320 + x1323 + x1324 + x1325 + x1326
   = 0
 c_e_x2443_: 7.62667e-07 x257 + 7.14667e-07 x258 + 7.00444e-07 x259
   + 6.77333e-07 x260 + 2.05354e-06 x273 + 1.9243e-06 x274 + 1.886e-06 x275
   + 1.82378e-06 x276 - x1461 - x1462 - x1463 - x1464 - x1485 - x1486
   - x1487 - x1488 + x1509 + x1510 + x1511 + x1512 + x1515 + x1516 + x1517
   + x1518 + x1521 + x1522 + x1523 + x1524 + x1581 + x1582 + x1583 + x1584
   + x1587 + x1588 + x1589 + x1590 + x1593 + x1594 + x1595 + x1596 + x1599
   + x1600 + x1601 + x1602 = 0
 c_e_x2444_: 1.96303e-06 x261 + 1.83949e-06 x262 + 1.80288e-06 x263
   + 1.74339e-06 x264 + 1.96303e-06 x277 + 1.83949e-06 x278
   + 1.80288e-06 x279 + 1.74339e-06 x280 - x1467 - x1468 - x1469 - x1470
   - x1491 - x1492 - x1493 - x1494 + x1527 + x1528 + x1529 + x1530 + x1533
   + x1534 + x1535 + x1536 + x1539 + x1540 + x1541 + x1542 + x1605 + x1606
   + x1607 + x1608 + x1611 + x1612 + x1613 + x1614 + x1617 + x1618 + x1619
   + x1620 + x1623 + x1624 + x1625 + x1626 = 0
 c_e_x2445_: 2.29593e-06 x265 + 2.15143e-06 x266 + 2.10862e-06 x267
   + 2.03904e-06 x268 + 1.75786e-06 x281 + 1.64723e-06 x282
   + 1.61444e-06 x283 + 1.56118e-06 x284 - x1473 - x1474 - x1475 - x1476
   - x1497 - x1498 - x1499 - x1500 + x1545 + x1546 + x1547 + x1548 + x1551
   + x1552 + x1553 + x1554 + x1557 + x1558 + x1559 + x1560 + x1629 + x1630
   + x1631 + x1632 + x1635 + x1636 + x1637 + x1638 + x1641 + x1642 + x1643
   + x1644 + x1647 + x1648 + x1649 + x1650 + x1653 + x1654 + x1655 + x1656
   = 0
 c_e_x2446_: 2.83446e-06 x269 + 2.65607e-06 x270 + 2.60321e-06 x271
   + 2.51732e-06 x272 + 2.09733e-06 x285 + 1.96533e-06 x286
   + 1.92622e-06 x287 + 1.86267e-06 x288 - x1479 - x1480 - x1481 - x1482
   - x1503 - x1504 - x1505 - x1506 + x1563 + x1564 + x1565 + x1566 + x1569
   + x1570 + x1571 + x1572 + x1575 + x1576 + x1577 + x1578 + x1659 + x1660
   + x1661 + x1662 + x1665 + x1666 + x1667 + x1668 + x1671 + x1672 + x1673
   + x1674 + x1677 + x1678 + x1679 + x1680 + x1683 + x1684 + x1685 + x1686
   = 0
 c_e_x2447_: 7.62667e-07 x498 + 7.14667e-07 x499 + 7.00444e-07 x500
   + 6.77333e-07 x501 + 2.05354e-06 x514 + 1.9243e-06 x515 + 1.886e-06 x516
   + 1.82378e-06 x517 - x1821 - x1822 - x1823 - x1824 - x1845 - x1846
   - x1847 - x1848 + x1869 + x1870 + x1871 + x1872 + x1875 + x1876 + x1877
   + x1878 + x1881 + x1882 + x1883 + x1884 + x1941 + x1942 + x1943 + x1944
   + x1947 + x1948 + x1949 + x1950 + x1953 + x1954 + x1955 + x1956 + x1959
   + x1960 + x1961 + x1962 = 0
 c_e_x2448_: 1.96303e-06 x502 + 1.83949e-06 x503 + 1.80288e-06 x504
   + 1.74339e-06 x505 + 1.96303e-06 x518 + 1.83949e-06 x519
   + 1.80288e-06 x520 + 1.74339e-06 x521 - x1827 - x1828 - x1829 - x1830
   - x1851 - x1852 - x1853 - x1854 + x1887 + x1888 + x1889 + x1890 + x1893
   + x1894 + x1895 + x1896 + x1899 + x1900 + x1901 + x1902 + x1965 + x1966
   + x1967 + x1968 + x1971 + x1972 + x1973 + x1974 + x1977 + x1978 + x1979
   + x1980 + x1983 + x1984 + x1985 + x1986 = 0
 c_e_x2449_: 2.29593e-06 x506 + 2.15143e-06 x507 + 2.10862e-06 x508
   + 2.03904e-06 x509 + 1.75786e-06 x522 + 1.64723e-06 x523
   + 1.61444e-06 x524 + 1.56118e-06 x525 - x1833 - x1834 - x1835 - x1836
   - x1857 - x1858 - x1859 - x1860 + x1905 + x1906 + x1907 + x1908 + x1911
   + x1912 + x1913 + x1914 + x1917 + x1918 + x1919 + x1920 + x1989 + x1990
   + x1991 + x1992 + x1995 + x1996 + x1997 + x1998 + x2001 + x2002 + x2003
   + x2004 + x2007 + x2008 + x2009 + x2010 + x2013 + x2014 + x2015 + x2016
   = 0
 c_e_x2450_: 2.83446e-06 x510 + 2.65607e-06 x511 + 2.60321e-06 x512
   + 2.51732e-06 x513 + 2.09733e-06 x526 + 1.96533e-06 x527
   + 1.92622e-06 x528 + 1.86267e-06 x529 - x1839 - x1840 - x1841 - x1842
   - x1863 - x1864 - x1865 - x1866 + x1923 + x1924 + x1925 + x1926 + x1929
   + x1930 + x1931 + x1932 + x1935 + x1936 + x1937 + x1938 + x2019 + x2020
   + x2021 + x2022 + x2025 + x2026 + x2027 + x2028 + x2031 + x2032 + x2033
   + x2034 + x2037 + x2038 + x2039 + x2040 + x2043 + x2044 + x2045 + x2046
   = 0
 c_e_x2451_: - 4.6772056711914009e-04 x337 - 2.3352024679685165e-04 x338
   - 0.00018532 x339 - 0.000147236 x340 - 0.00197091679511877 x353
   - 9.8402552457129496e-04 x354 - 7.809157785094369e-04 x355
   - 0.000620434 x356 + x861 + x862 + x863 + x864 + x885 + x886 + x887
   + x888 - x1005 - x1006 - x1007 - x1008 - x1011 - x1012 - x1013 - x1014
   - x1017 - x1018 - x1019 - x1020 = 1.198177242763489
 c_e_x2452_: - 8.6243411242903074e-04 x341 - 0.00043059 x342
   - 3.4171326155857634e-04 x343 - 2.714896188162634e-04 x344
   - 0.00198407233239019 x357 - 9.9059372902142017e-04 x358
   - 7.8612825965296523e-04 x359 - 6.2457529620134659e-04 x360
   - 0.000591625 x433 - 2.9538234385707623e-04 x434
   - 2.3441336352691158e-04 x435 - 1.8624034203147284e-04 x436 + x867
   + x868 + x869 + x870 + x891 + x892 + x893 + x894 + x1005 + x1006 + x1007
   + x1008 - x1023 - x1024 - x1025 - x1026 - x1029 - x1030 - x1031 - x1032
   = 1.540640219349661
 c_e_x2453_: - 0.0017551105113443 x345 - 8.762792756566326e-04 x346
   - 6.9540910845702908e-04 x347 - 5.524993467190708e-04 x348
   - 0.00165095816426591 x361 - 8.2427882174453723e-04 x362
   - 0.000654142 x363 - 5.1971274818403282e-04 x364
   - 0.00139088829732118 x437 - 0.000694433 x438
   - 5.5109714434026962e-04 x439 - 4.3784415320979213e-04 x440
   - 9.0459389127110518e-04 x445 - 4.5163929831365426e-04 x446
   - 3.5841779043457091e-04 x447 - 2.8476129038196182e-04 x448 + x873
   + x874 + x875 + x876 + x897 + x898 + x899 + x900 + x1011 + x1012 + x1013
   + x1014 + x1023 + x1024 + x1025 + x1026 - x1035 - x1036 - x1037 - x1038
   = 2.000370236288216
 c_e_x2454_: - 0.0008253 x349 - 0.00041205 x350 - 0.000327 x351
   - 0.0002598 x352 - 0.00193794233563592 x365
   - 9.6756226753759889e-04 x366 - 7.6785065279649279e-04 x367
   - 6.1005382139611253e-04 x368 - 6.6768447556181051e-04 x441
   - 3.3335682558493162e-04 x442 - 2.6454964680566105e-04 x443
   - 2.1018348085660775e-04 x444 - 0.00124033572200483 x449
   - 6.1926612656257286e-04 x450 - 4.9144526971474649e-04 x451
   - 0.000390451 x452 - 0.00190997722029119 x453 - 0.0009536 x454
   - 7.5677032719643545e-04 x455 - 6.0125055353404868e-04 x456 + x879
   + x880 + x881 + x882 + x903 + x904 + x905 + x906 + x1017 + x1018 + x1019
   + x1020 + x1029 + x1030 + x1031 + x1032 + x1035 + x1036 + x1037 + x1038
   = 2.45847787734035
 c_e_x2455_: - 0.00235874187548283 x369 - 0.00117765611267745 x370
   - 9.3457965986051719e-04 x371 - 7.425192526965209e-04 x372
   - 0.00138620444159808 x389 - 6.920944385805036e-04 x390
   - 5.492413091028386e-04 x391 - 4.3636970062665889e-04 x392 + x909 + x910
   + x911 + x912 + x939 + x940 + x941 + x942 - x1041 - x1042 - x1043
   - x1044 - x1047 - x1048 - x1049 - x1050 - x1053 - x1054 - x1055 - x1056
   - x1059 - x1060 - x1061 - x1062 = 2.588584838261778
 c_e_x2456_: - 8.6243411242903074e-04 x373 - 0.00043059 x374
   - 3.4171326155857634e-04 x375 - 2.714896188162634e-04 x376
   - 7.7581736222596227e-04 x393 - 3.873446554043473e-04 x394
   - 0.000307394 x395 - 2.4422313183848903e-04 x396
   - 0.00190718915701222 x457 - 0.000952208 x458
   - 7.5566564200048162e-04 x459 - 6.0037288621322656e-04 x460 + x915
   + x916 + x917 + x918 + x945 + x946 + x947 + x948 + x1041 + x1042 + x1043
   + x1044 - x1065 - x1066 - x1067 - x1068 - x1071 - x1072 - x1073 - x1074
   - x1077 - x1078 - x1079 - x1080 = 3.538361510816394
 c_e_x2457_: - 0.00172075 x377 - 0.000859124 x378
   - 6.8179478217422578e-04 x379 - 5.4168282693842153e-04 x380
   - 0.00120307114970396 x397 - 0.000600661 x398
   - 4.7668031740360329e-04 x399 - 3.7872032557020223e-04 x400
   - 0.00158219873302353 x461 - 0.000789949 x462 - 0.000626898 x463
   - 4.9806764914517385e-04 x464 - 0.000870622 x473 - 0.000434678 x474
   - 3.449574475569415e-04 x475 - 2.740671097103773e-04 x476 + x921 + x922
   + x923 + x924 + x951 + x952 + x953 + x954 + x1047 + x1048 + x1049
   + x1050 + x1065 + x1066 + x1067 + x1068 - x1083 - x1084 - x1085 - x1086
   - x1089 - x1090 - x1091 - x1092 = 1.111706034225331
 c_e_x2458_: - 0.000860375 x381 - 0.000429562 x382
   - 3.4089739108711289e-04 x383 - 2.7084141346921076e-04 x384
   - 6.7560717899715949e-04 x401 - 3.3731241743097009e-04 x402
   - 2.6768877684729328e-04 x403 - 2.1267750527500549e-04 x404
   - 0.00183030678921766 x465 - 9.138227462706115e-04 x466
   - 7.2520334432833386e-04 x467 - 5.7617073044801575e-04 x468
   - 0.00124224100073466 x477 - 6.202173807739207e-04 x478
   - 4.9220017840813509e-04 x479 - 3.9105078394627968e-04 x480
   - 0.00186137730130474 x485 - 9.2933541379209531e-04 x486
   - 0.000737514 x487 - 5.8595156049796458e-04 x488 + x927 + x928 + x929
   + x930 + x957 + x958 + x959 + x960 + x1053 + x1054 + x1055 + x1056
   + x1071 + x1072 + x1073 + x1074 + x1083 + x1084 + x1085 + x1086 - x1095
   - x1096 - x1097 - x1098 = 2.054810105081783
 c_e_x2459_: - 0.00114309346628185 x385 - 5.7071569463399416e-04 x386
   - 0.000452916 x387 - 3.5983967350057441e-04 x388 - 1.719375e-04 x405
   - 8.58437e-05 x406 - 6.8125e-05 x407 - 5.4125e-05 x408
   - 0.00121675395854092 x469 - 6.0749238896981247e-04 x470
   - 4.8210171385300012e-04 x471 - 3.8302760018045696e-04 x472
   - 8.9671629083562434e-04 x481 - 4.4770622517729193e-04 x482
   - 3.5529653108354439e-04 x483 - 2.8228146414527468e-04 x484
   - 0.00119765299211886 x489 - 5.9795579232106493e-04 x490
   - 4.7453353740805297e-04 x491 - 3.770147187113521e-04 x492
   - 7.5730613082243688e-04 x493 - 3.7810249752257984e-04 x494
   - 3.0005949930805387e-04 x495 - 2.3839589578052717e-04 x496 + x933
   + x934 + x935 + x936 + x963 + x964 + x965 + x966 + x1059 + x1060 + x1061
   + x1062 + x1077 + x1078 + x1079 + x1080 + x1089 + x1090 + x1091 + x1092
   + x1095 + x1096 + x1097 + x1098 = 2.34828321975434
 c_e_x2460_: - 5.46793e-07 x289 - 2.72999e-07 x290 - 2.1665e-07 x291
   - 1.72128e-07 x292 - 1.22267e-06 x301 - 6.10444e-07 x302
   - 4.84444e-07 x303 - 3.84889e-07 x304 + x789 + x790 + x791 + x792 + x807
   + x808 + x809 + x810 - x969 - x970 - x971 - x972 - x975 - x976 - x977
   - x978 = 8.27388425937975
 c_e_x2461_: - 1.09359e-06 x293 - 5.45998e-07 x294 - 4.333e-07 x295
   - 3.44255e-07 x296 - 7.73282e-07 x305 - 3.86079e-07 x306
   - 3.0639e-07 x307 - 2.43425e-07 x308 - 5.46793e-07 x409
   - 2.72999e-07 x410 - 2.1665e-07 x411 - 1.72128e-07 x412 + x795 + x796
   + x797 + x798 + x813 + x814 + x815 + x816 + x969 + x970 + x971 + x972
   - x981 - x982 - x983 - x984 = 9.934573278747196
 c_e_x2462_: - 1.38329e-06 x297 - 6.90639e-07 x298 - 5.48086e-07 x299
   - 4.35452e-07 x300 - 3.45822e-07 x309 - 1.7266e-07 x310
   - 1.37022e-07 x311 - 1.08863e-07 x312 - 8.81677e-07 x413
   - 4.40198e-07 x414 - 3.49338e-07 x415 - 2.77547e-07 x416
   - 4.89067e-07 x417 - 2.44178e-07 x418 - 1.93778e-07 x419
   - 1.53956e-07 x420 + x801 + x802 + x803 + x804 + x819 + x820 + x821
   + x822 + x975 + x976 + x977 + x978 + x981 + x982 + x983 + x984
   = 13.84665016635191
 c_e_x2463_: - 7.73282e-07 x313 - 3.86079e-07 x314 - 3.0639e-07 x315
   - 2.43425e-07 x316 - 3.45822e-07 x325 - 1.7266e-07 x326
   - 1.37022e-07 x327 - 1.08863e-07 x328 + x825 + x826 + x827 + x828 + x843
   + x844 + x845 + x846 - x987 - x988 - x989 - x990 - x993 - x994 - x995
   - x996 = 8.335302567224096
 c_e_x2464_: - 1.38329e-06 x317 - 6.90639e-07 x318 - 5.48086e-07 x319
   - 4.35452e-07 x320 - 6.91645e-07 x329 - 3.4532e-07 x330
   - 2.74043e-07 x331 - 2.17726e-07 x332 - 7.73282e-07 x421
   - 3.86079e-07 x422 - 3.0639e-07 x423 - 2.43425e-07 x424 + x831 + x832
   + x833 + x834 + x849 + x850 + x851 + x852 + x987 + x988 + x989 + x990
   - x999 - x1000 - x1001 - x1002 = 10.32006835128681
 c_e_x2465_: - 1.00824e-06 x321 - 5.03385e-07 x322 - 3.99483e-07 x323
   - 3.17388e-07 x324 - 5.46793e-07 x333 - 2.72999e-07 x334
   - 2.1665e-07 x335 - 1.72128e-07 x336 - 8.81677e-07 x425
   - 4.40198e-07 x426 - 3.49338e-07 x427 - 2.77547e-07 x428
   - 7.336e-07 x429 - 3.66267e-07 x430 - 2.90667e-07 x431
   - 2.30933e-07 x432 + x837 + x838 + x839 + x840 + x855 + x856 + x857
   + x858 + x993 + x994 + x995 + x996 + x999 + x1000 + x1001 + x1002
   = 14.59983418339293
 c_e_x2466_: - 4.6772056711914009e-04 x578 - 2.3352024679685165e-04 x579
   - 0.00018532 x580 - 0.000147236 x581 - 0.00197091679511877 x594
   - 9.8402552457129496e-04 x595 - 7.809157785094369e-04 x596
   - 0.000620434 x597 + x1221 + x1222 + x1223 + x1224 + x1245 + x1246
   + x1247 + x1248 - x1365 - x1366 - x1367 - x1368 - x1371 - x1372 - x1373
   - x1374 - x1377 - x1378 - x1379 - x1380 = 0.9804689230967129
 c_e_x2467_: - 8.6243411242903074e-04 x582 - 0.00043059 x583
   - 3.4171326155857634e-04 x584 - 2.714896188162634e-04 x585
   - 0.00198407233239019 x598 - 9.9059372902142017e-04 x599
   - 7.8612825965296523e-04 x600 - 6.2457529620134659e-04 x601
   - 0.000591625 x674 - 2.9538234385707623e-04 x675
   - 2.3441336352691158e-04 x676 - 1.8624034203147284e-04 x677 + x1227
   + x1228 + x1229 + x1230 + x1251 + x1252 + x1253 + x1254 + x1365 + x1366
   + x1367 + x1368 - x1383 - x1384 - x1385 - x1386 - x1389 - x1390 - x1391
   - x1392 = 1.581032078591288
 c_e_x2468_: - 0.0017551105113443 x586 - 8.762792756566326e-04 x587
   - 6.9540910845702908e-04 x588 - 5.524993467190708e-04 x589
   - 0.00165095816426591 x602 - 8.2427882174453723e-04 x603
   - 0.000654142 x604 - 5.1971274818403282e-04 x605
   - 0.00139088829732118 x678 - 0.000694433 x679
   - 5.5109714434026962e-04 x680 - 4.3784415320979213e-04 x681
   - 9.0459389127110518e-04 x686 - 4.5163929831365426e-04 x687
   - 3.5841779043457091e-04 x688 - 2.8476129038196182e-04 x689 + x1233
   + x1234 + x1235 + x1236 + x1257 + x1258 + x1259 + x1260 + x1371 + x1372
   + x1373 + x1374 + x1383 + x1384 + x1385 + x1386 - x1395 - x1396 - x1397
   - x1398 = 1.779078859746853
 c_e_x2469_: - 0.0008253 x590 - 0.00041205 x591 - 0.000327 x592
   - 0.0002598 x593 - 0.00193794233563592 x606
   - 9.6756226753759889e-04 x607 - 7.6785065279649279e-04 x608
   - 6.1005382139611253e-04 x609 - 6.6768447556181051e-04 x682
   - 3.3335682558493162e-04 x683 - 2.6454964680566105e-04 x684
   - 2.1018348085660775e-04 x685 - 0.00124033572200483 x690
   - 6.1926612656257286e-04 x691 - 4.9144526971474649e-04 x692
   - 0.000390451 x693 - 0.00190997722029119 x694 - 0.0009536 x695
   - 7.5677032719643545e-04 x696 - 6.0125055353404868e-04 x697 + x1239
   + x1240 + x1241 + x1242 + x1263 + x1264 + x1265 + x1266 + x1377 + x1378
   + x1379 + x1380 + x1389 + x1390 + x1391 + x1392 + x1395 + x1396 + x1397
   + x1398 = 2.602943828809135
 c_e_x2470_: - 0.00235874187548283 x610 - 0.00117765611267745 x611
   - 9.3457965986051719e-04 x612 - 7.425192526965209e-04 x613
   - 0.00138620444159808 x630 - 6.920944385805036e-04 x631
   - 5.492413091028386e-04 x632 - 4.3636970062665889e-04 x633 + x1269
   + x1270 + x1271 + x1272 + x1299 + x1300 + x1301 + x1302 - x1401 - x1402
   - x1403 - x1404 - x1407 - x1408 - x1409 - x1410 - x1413 - x1414 - x1415
   - x1416 - x1419 - x1420 - x1421 - x1422 = 3.3165665603088
 c_e_x2471_: - 8.6243411242903074e-04 x614 - 0.00043059 x615
   - 3.4171326155857634e-04 x616 - 2.714896188162634e-04 x617
   - 7.7581736222596227e-04 x634 - 3.873446554043473e-04 x635
   - 0.000307394 x636 - 2.4422313183848903e-04 x637
   - 0.00190718915701222 x698 - 0.000952208 x699
   - 7.5566564200048162e-04 x700 - 6.0037288621322656e-04 x701 + x1275
   + x1276 + x1277 + x1278 + x1305 + x1306 + x1307 + x1308 + x1401 + x1402
   + x1403 + x1404 - x1425 - x1426 - x1427 - x1428 - x1431 - x1432 - x1433
   - x1434 - x1437 - x1438 - x1439 - x1440 = 3.055142816865783
 c_e_x2472_: - 0.00172075 x618 - 0.000859124 x619
   - 6.8179478217422578e-04 x620 - 5.4168282693842153e-04 x621
   - 0.00120307114970396 x638 - 0.000600661 x639
   - 4.7668031740360329e-04 x640 - 3.7872032557020223e-04 x641
   - 0.00158219873302353 x702 - 0.000789949 x703 - 0.000626898 x704
   - 4.9806764914517385e-04 x705 - 0.000870622 x714 - 0.000434678 x715
   - 3.449574475569415e-04 x716 - 2.740671097103773e-04 x717 + x1281
   + x1282 + x1283 + x1284 + x1311 + x1312 + x1313 + x1314 + x1407 + x1408
   + x1409 + x1410 + x1425 + x1426 + x1427 + x1428 - x1443 - x1444 - x1445
   - x1446 - x1449 - x1450 - x1451 - x1452 = 1.153014554400497
 c_e_x2473_: - 0.000860375 x622 - 0.000429562 x623
   - 3.4089739108711289e-04 x624 - 2.7084141346921076e-04 x625
   - 6.7560717899715949e-04 x642 - 3.3731241743097009e-04 x643
   - 2.6768877684729328e-04 x644 - 2.1267750527500549e-04 x645
   - 0.00183030678921766 x706 - 9.138227462706115e-04 x707
   - 7.2520334432833386e-04 x708 - 5.7617073044801575e-04 x709
   - 0.00124224100073466 x718 - 6.202173807739207e-04 x719
   - 4.9220017840813509e-04 x720 - 3.9105078394627968e-04 x721
   - 0.00186137730130474 x726 - 9.2933541379209531e-04 x727
   - 0.000737514 x728 - 5.8595156049796458e-04 x729 + x1287 + x1288 + x1289
   + x1290 + x1317 + x1318 + x1319 + x1320 + x1413 + x1414 + x1415 + x1416
   + x1431 + x1432 + x1433 + x1434 + x1443 + x1444 + x1445 + x1446 - x1455
   - x1456 - x1457 - x1458 = 1.616230128633481
 c_e_x2474_: - 0.00114309346628185 x626 - 5.7071569463399416e-04 x627
   - 0.000452916 x628 - 3.5983967350057441e-04 x629 - 1.719375e-04 x646
   - 8.58437e-05 x647 - 6.8125e-05 x648 - 5.4125e-05 x649
   - 0.00121675395854092 x710 - 6.0749238896981247e-04 x711
   - 4.8210171385300012e-04 x712 - 3.8302760018045696e-04 x713
   - 8.9671629083562434e-04 x722 - 4.4770622517729193e-04 x723
   - 3.5529653108354439e-04 x724 - 2.8228146414527468e-04 x725
   - 0.00119765299211886 x730 - 5.9795579232106493e-04 x731
   - 4.7453353740805297e-04 x732 - 3.770147187113521e-04 x733
   - 7.5730613082243688e-04 x734 - 3.7810249752257984e-04 x735
   - 3.0005949930805387e-04 x736 - 2.3839589578052717e-04 x737 + x1293
   + x1294 + x1295 + x1296 + x1323 + x1324 + x1325 + x1326 + x1419 + x1420
   + x1421 + x1422 + x1437 + x1438 + x1439 + x1440 + x1449 + x1450 + x1451
   + x1452 + x1455 + x1456 + x1457 + x1458 = 2.452678759145922
 c_e_x2475_: - 5.46793e-07 x530 - 2.72999e-07 x531 - 2.1665e-07 x532
   - 1.72128e-07 x533 - 1.22267e-06 x542 - 6.10444e-07 x543
   - 4.84444e-07 x544 - 3.84889e-07 x545 + x1149 + x1150 + x1151 + x1152
   + x1167 + x1168 + x1169 + x1170 - x1329 - x1330 - x1331 - x1332 - x1335
   - x1336 - x1337 - x1338 = 10.14006816929898
 c_e_x2476_: - 1.09359e-06 x534 - 5.45998e-07 x535 - 4.333e-07 x536
   - 3.44255e-07 x537 - 7.73282e-07 x546 - 3.86079e-07 x547
   - 3.0639e-07 x548 - 2.43425e-07 x549 - 5.46793e-07 x650
   - 2.72999e-07 x651 - 2.1665e-07 x652 - 1.72128e-07 x653 + x1155 + x1156
   + x1157 + x1158 + x1173 + x1174 + x1175 + x1176 + x1329 + x1330 + x1331
   + x1332 - x1341 - x1342 - x1343 - x1344 = 8.801056805522739
 c_e_x2477_: - 1.38329e-06 x538 - 6.90639e-07 x539 - 5.48086e-07 x540
   - 4.35452e-07 x541 - 3.45822e-07 x550 - 1.7266e-07 x551
   - 1.37022e-07 x552 - 1.08863e-07 x553 - 8.81677e-07 x654
   - 4.40198e-07 x655 - 3.49338e-07 x656 - 2.77547e-07 x657
   - 4.89067e-07 x658 - 2.44178e-07 x659 - 1.93778e-07 x660
   - 1.53956e-07 x661 + x1161 + x1162 + x1163 + x1164 + x1179 + x1180
   + x1181 + x1182 + x1335 + x1336 + x1337 + x1338 + x1341 + x1342 + x1343
   + x1344 = 9.809215005351874
 c_e_x2478_: - 7.73282e-07 x554 - 3.86079e-07 x555 - 3.0639e-07 x556
   - 2.43425e-07 x557 - 3.45822e-07 x566 - 1.7266e-07 x567
   - 1.37022e-07 x568 - 1.08863e-07 x569 + x1185 + x1186 + x1187 + x1188
   + x1203 + x1204 + x1205 + x1206 - x1347 - x1348 - x1349 - x1350 - x1353
   - x1354 - x1355 - x1356 = 8.070449339949549
 c_e_x2479_: - 1.38329e-06 x558 - 6.90639e-07 x559 - 5.48086e-07 x560
   - 4.35452e-07 x561 - 6.91645e-07 x570 - 3.4532e-07 x571
   - 2.74043e-07 x572 - 2.17726e-07 x573 - 7.73282e-07 x662
   - 3.86079e-07 x663 - 3.0639e-07 x664 - 2.43425e-07 x665 + x1191 + x1192
   + x1193 + x1194 + x1209 + x1210 + x1211 + x1212 + x1347 + x1348 + x1349
   + x1350 - x1359 - x1360 - x1361 - x1362 = 12.25981303992778
 c_e_x2480_: - 1.00824e-06 x562 - 5.03385e-07 x563 - 3.99483e-07 x564
   - 3.17388e-07 x565 - 5.46793e-07 x574 - 2.72999e-07 x575
   - 2.1665e-07 x576 - 1.72128e-07 x577 - 8.81677e-07 x666
   - 4.40198e-07 x667 - 3.49338e-07 x668 - 2.77547e-07 x669
   - 7.336e-07 x670 - 3.66267e-07 x671 - 2.90667e-07 x672
   - 2.30933e-07 x673 + x1197 + x1198 + x1199 + x1200 + x1215 + x1216
   + x1217 + x1218 + x1353 + x1354 + x1355 + x1356 + x1359 + x1360 + x1361
   + x1362 = 12.13645883508843
 c_e_x2481_: - 3.6468942801546911e-04 x337 - 0.000341737 x338
   - 3.349362112776103e-04 x339 - 0.000323885 x340
   - 0.00153675627972729 x353 - 0.00144003735303116 x354
   - 0.00141137989326935 x355 - 0.0013648115211564 x356 + x1581 + x1582
   + x1583 + x1584 + x1605 + x1606 + x1607 + x1608 - x1725 - x1726 - x1727
   - x1728 - x1731 - x1732 - x1733 - x1734 - x1737 - x1738 - x1739 - x1740
   = 0.865252466062204
 c_e_x2482_: - 0.000672454 x341 - 6.3013179425021879e-04 x342
   - 6.1759185804623434e-04 x343 - 5.9721446171475962e-04 x344
   - 0.00154701386876662 x357 - 0.00144964935954354 x358
   - 0.00142080061607004 x359 - 0.0013739214079256 x360
   - 4.6129969244516086e-04 x433 - 4.3226684466889196e-04 x434
   - 4.2366451940184941e-04 x435 - 4.0968574084290511e-04 x436 + x1587
   + x1588 + x1589 + x1590 + x1611 + x1612 + x1613 + x1614 + x1725 + x1726
   + x1727 + x1728 - x1743 - x1744 - x1745 - x1746 - x1749 - x1750 - x1751
   - x1752 = 1.865036339790226
 c_e_x2483_: - 0.0013684885666425 x345 - 0.00128236 x346
   - 0.00125684031528472 x347 - 0.0012153709647804 x348
   - 0.00128727926657592 x361 - 0.00120626169035786 x362
   - 0.00118225648258954 x363 - 0.00114324801996603 x364
   - 0.0010844985088164 x437 - 0.00101624335791187 x438
   - 9.9601960949571682e-04 x439 - 0.000963156 x440
   - 7.0532675273592171e-04 x445 - 6.6093555850778665e-04 x446
   - 6.4778261206982089e-04 x447 - 0.000626409 x448 + x1593 + x1594 + x1595
   + x1596 + x1617 + x1618 + x1619 + x1620 + x1731 + x1732 + x1733 + x1734
   + x1743 + x1744 + x1745 + x1746 - x1755 - x1756 - x1757 - x1758
   = 2.572541766661842
 c_e_x2484_: - 0.0006435 x349 - 0.000603 x350 - 0.000591 x351
   - 0.0005715 x352 - 0.00151104555068668 x365 - 0.00141594478176234 x366
   - 0.00138776677615513 x367 - 0.00134197751704341 x368
   - 5.2060458018178253e-04 x441 - 4.8783925695355842e-04 x442
   - 0.000478131 x443 - 4.6235511666493971e-04 x444
   - 9.6711018673223056e-04 x449 - 9.0624311204278937e-04 x450
   - 8.8820842324591805e-04 x451 - 0.000858902 x452
   - 0.00148924068975812 x453 - 0.00139551225473838 x454
   - 0.00136774086658438 x455 - 0.00132261236083414 x456 + x1599 + x1600
   + x1601 + x1602 + x1623 + x1624 + x1625 + x1626 + x1737 + x1738 + x1739
   + x1740 + x1749 + x1750 + x1751 + x1752 + x1755 + x1756 + x1757 + x1758
   = 3.860016594828728
 c_e_x2485_: - 0.00183914988110166 x369 - 0.00172339918928407 x370
   - 0.00168910268800479 x371 - 0.00163337087342595 x372
   - 0.00108084642938127 x389 - 0.00101282112963001 x390
   - 9.9266548525925899e-04 x391 - 9.5991256315679609e-04 x392 + x1629
   + x1630 + x1631 + x1632 + x1659 + x1660 + x1661 + x1662 - x1761 - x1762
   - x1763 - x1764 - x1767 - x1768 - x1769 - x1770 - x1773 - x1774 - x1775
   - x1776 - x1779 - x1780 - x1781 - x1782 = 4.246241597093702
 c_e_x2486_: - 0.000672454 x373 - 6.3013179425021879e-04 x374
   - 6.1759185804623434e-04 x375 - 5.9721446171475962e-04 x376
   - 6.0491757250988342e-04 x393 - 5.6684583717709356e-04 x394
   - 5.5556532300441515e-04 x395 - 5.3723448747381255e-04 x396
   - 0.0014870667909092 x457 - 0.00139347517469814 x458
   - 0.00136574432545041 x459 - 0.00132068169542286 x460 + x1635 + x1636
   + x1637 + x1638 + x1665 + x1666 + x1667 + x1668 + x1761 + x1762 + x1763
   + x1764 - x1785 - x1786 - x1787 - x1788 - x1791 - x1792 - x1793 - x1794
   - x1797 - x1798 - x1799 - x1800 = 6.435199036677674
 c_e_x2487_: - 0.00134169707134286 x377 - 0.00125725459832128 x378
   - 0.00123223460631489 x379 - 0.0011915771193045 x380
   - 9.3805438608323766e-04 x397 - 0.000879016 x398
   - 8.6152314246339319e-04 x399 - 8.3309725197602228e-04 x400
   - 0.00123366640579261 x461 - 0.0011560230655679 x462
   - 0.00113301763142724 x463 - 0.00109563380094868 x464
   - 6.788382798253573e-04 x473 - 6.3611419228390116e-04 x474
   - 6.2345520338272914e-04 x475 - 6.0288434641832429e-04 x476 + x1641
   + x1642 + x1643 + x1644 + x1671 + x1672 + x1673 + x1674 + x1767 + x1768
   + x1769 + x1770 + x1785 + x1786 + x1787 + x1788 - x1803 - x1804 - x1805
   - x1806 - x1809 - x1810 - x1811 - x1812 = 0.8720504809468789
 c_e_x2488_: - 6.7084853567142859e-04 x381 - 6.2862729916063939e-04 x382
   - 6.1611730315744263e-04 x383 - 5.9578855965224781e-04 x384
   - 0.000526782 x401 - 0.000493628 x402 - 4.8380448659556685e-04 x403
   - 4.6784139439825118e-04 x404 - 0.00142712034273787 x465
   - 0.00133730157990821 x466 - 0.00131068861314387 x467
   - 0.00126744254215181 x468 - 9.685957639316052e-04 x477
   - 9.076351913764692e-04 x478 - 8.895727995082808e-04 x479
   - 8.6022141272247457e-04 x480 - 0.00145134653264219 x485
   - 0.0013600030445738 x486 - 0.00133293830736835 x487
   - 0.0012889581094095 x488 + x1647 + x1648 + x1649 + x1650 + x1677
   + x1678 + x1679 + x1680 + x1773 + x1774 + x1775 + x1776 + x1791 + x1792
   + x1793 + x1794 + x1803 + x1804 + x1805 + x1806 - x1815 - x1816 - x1817
   - x1818 = 1.97878123878673
 c_e_x2489_: - 8.9128879868213872e-04 x385 - 8.3519369946438173e-04 x386
   - 0.000818573 x387 - 7.9156417785057078e-04 x388
   - 1.3406249999999999e-04 x405 - 0.000125625 x406 - 0.000123125 x407
   - 1.190625e-04 x408 - 0.000948723 x469 - 8.8901325215094511e-04 x470
   - 8.7132144613799101e-04 x471 - 8.4257226136694044e-04 x472
   - 6.9918445795798408e-04 x481 - 6.5517984172286619e-04 x482
   - 6.4214143691246101e-04 x483 - 0.000620954 x484
   - 9.3382975939474647e-04 x489 - 8.750572570552169e-04 x490
   - 8.5764318228794901e-04 x491 - 8.2934531079113848e-04 x492
   - 0.000590484 x493 - 5.5332072808182415e-04 x494
   - 5.4230937030905159e-04 x495 - 0.000524416 x496 + x1653 + x1654 + x1655
   + x1656 + x1683 + x1684 + x1685 + x1686 + x1779 + x1780 + x1781 + x1782
   + x1797 + x1798 + x1799 + x1800 + x1809 + x1810 + x1811 + x1812 + x1815
   + x1816 + x1817 + x1818 = 2.980611917338528
 c_e_x2490_: - 4.26344e-07 x289 - 3.99511e-07 x290 - 3.9156e-07 x291
   - 3.78641e-07 x292 - 9.53333e-07 x301 - 8.93333e-07 x302
   - 8.75556e-07 x303 - 8.46667e-07 x304 + x1509 + x1510 + x1511 + x1512
   + x1527 + x1528 + x1529 + x1530 - x1689 - x1690 - x1691 - x1692 - x1695
   - x1696 - x1697 - x1698 = 10.85684417807343
 c_e_x2491_: - 8.52687e-07 x293 - 7.99022e-07 x294 - 7.83121e-07 x295
   - 7.57282e-07 x296 - 6.02941e-07 x305 - 5.64994e-07 x306
   - 5.5375e-07 x307 - 5.35479e-07 x308 - 4.26344e-07 x409
   - 3.99511e-07 x410 - 3.9156e-07 x411 - 3.78641e-07 x412 + x1515 + x1516
   + x1517 + x1518 + x1533 + x1534 + x1535 + x1536 + x1689 + x1690 + x1691
   + x1692 - x1701 - x1702 - x1703 - x1704 = 8.444317379893684
 c_e_x2492_: - 1.07857e-06 x297 - 1.01069e-06 x298 - 9.90578e-07 x299
   - 9.57894e-07 x300 - 2.69643e-07 x309 - 2.52673e-07 x310
   - 2.47645e-07 x311 - 2.39473e-07 x312 - 6.87458e-07 x413
   - 6.44192e-07 x414 - 6.31372e-07 x415 - 6.1054e-07 x416
   - 3.81333e-07 x417 - 3.57333e-07 x418 - 3.50222e-07 x419
   - 3.38667e-07 x420 + x1521 + x1522 + x1523 + x1524 + x1539 + x1540
   + x1541 + x1542 + x1695 + x1696 + x1697 + x1698 + x1701 + x1702 + x1703
   + x1704 = 10.37420799203403
 c_e_x2493_: - 6.02941e-07 x313 - 5.64994e-07 x314 - 5.5375e-07 x315
   - 5.35479e-07 x316 - 2.69643e-07 x325 - 2.52673e-07 x326
   - 2.47645e-07 x327 - 2.39473e-07 x328 + x1545 + x1546 + x1547 + x1548
   + x1563 + x1564 + x1565 + x1566 - x1707 - x1708 - x1709 - x1710 - x1713
   - x1714 - x1715 - x1716 = 5.187870964066185
 c_e_x2494_: - 1.07857e-06 x317 - 1.01069e-06 x318 - 9.90578e-07 x319
   - 9.57894e-07 x320 - 5.39287e-07 x329 - 5.05346e-07 x330
   - 4.95289e-07 x331 - 4.78947e-07 x332 - 6.02941e-07 x421
   - 5.64994e-07 x422 - 5.5375e-07 x423 - 5.35479e-07 x424 + x1551 + x1552
   + x1553 + x1554 + x1569 + x1570 + x1571 + x1572 + x1707 + x1708 + x1709
   + x1710 - x1719 - x1720 - x1721 - x1722 = 10.35080550189943
 c_e_x2495_: - 7.86139e-07 x321 - 7.36662e-07 x322 - 7.22002e-07 x323
   - 6.98179e-07 x324 - 4.26344e-07 x333 - 3.99511e-07 x334
   - 3.9156e-07 x335 - 3.78641e-07 x336 - 6.87458e-07 x425
   - 6.44192e-07 x426 - 6.31372e-07 x427 - 6.1054e-07 x428 - 5.72e-07 x429
   - 5.36e-07 x430 - 5.25333e-07 x431 - 5.08e-07 x432 + x1557 + x1558
   + x1559 + x1560 + x1575 + x1576 + x1577 + x1578 + x1713 + x1714 + x1715
   + x1716 + x1719 + x1720 + x1721 + x1722 = 13.2440189521202
 c_e_x2496_: - 3.6468942801546911e-04 x578 - 0.000341737 x579
   - 3.349362112776103e-04 x580 - 0.000323885 x581
   - 0.00153675627972729 x594 - 0.00144003735303116 x595
   - 0.00141137989326935 x596 - 0.0013648115211564 x597 + x1941 + x1942
   + x1943 + x1944 + x1965 + x1966 + x1967 + x1968 - x2085 - x2086 - x2087
   - x2088 - x2091 - x2092 - x2093 - x2094 - x2097 - x2098 - x2099 - x2100
   = 1.001816177973146
 c_e_x2497_: - 0.000672454 x582 - 6.3013179425021879e-04 x583
   - 6.1759185804623434e-04 x584 - 5.9721446171475962e-04 x585
   - 0.00154701386876662 x598 - 0.00144964935954354 x599
   - 0.00142080061607004 x600 - 0.0013739214079256 x601
   - 4.6129969244516086e-04 x674 - 4.3226684466889196e-04 x675
   - 4.2366451940184941e-04 x676 - 4.0968574084290511e-04 x677 + x1947
   + x1948 + x1949 + x1950 + x1971 + x1972 + x1973 + x1974 + x2085 + x2086
   + x2087 + x2088 - x2103 - x2104 - x2105 - x2106 - x2109 - x2110 - x2111
   - x2112 = 2.380238442714684
 c_e_x2498_: - 0.0013684885666425 x586 - 0.00128236 x587
   - 0.00125684031528472 x588 - 0.0012153709647804 x589
   - 0.00128727926657592 x602 - 0.00120626169035786 x603
   - 0.00118225648258954 x604 - 0.00114324801996603 x605
   - 0.0010844985088164 x678 - 0.00101624335791187 x679
   - 9.9601960949571682e-04 x680 - 0.000963156 x681
   - 7.0532675273592171e-04 x686 - 6.6093555850778665e-04 x687
   - 6.4778261206982089e-04 x688 - 0.000626409 x689 + x1953 + x1954 + x1955
   + x1956 + x1977 + x1978 + x1979 + x1980 + x2091 + x2092 + x2093 + x2094
   + x2103 + x2104 + x2105 + x2106 - x2115 - x2116 - x2117 - x2118
   = 3.302629011901834
 c_e_x2499_: - 0.0006435 x590 - 0.000603 x591 - 0.000591 x592
   - 0.0005715 x593 - 0.00151104555068668 x606 - 0.00141594478176234 x607
   - 0.00138776677615513 x608 - 0.00134197751704341 x609
   - 5.2060458018178253e-04 x682 - 4.8783925695355842e-04 x683
   - 0.000478131 x684 - 4.6235511666493971e-04 x685
   - 9.6711018673223056e-04 x690 - 9.0624311204278937e-04 x691
   - 8.8820842324591805e-04 x692 - 0.000858902 x693
   - 0.00148924068975812 x694 - 0.00139551225473838 x695
   - 0.00136774086658438 x696 - 0.00132261236083414 x697 + x1959 + x1960
   + x1961 + x1962 + x1983 + x1984 + x1985 + x1986 + x2097 + x2098 + x2099
   + x2100 + x2109 + x2110 + x2111 + x2112 + x2115 + x2116 + x2117 + x2118
   = 3.563151800811703
 c_e_x2500_: - 0.00183914988110166 x610 - 0.00172339918928407 x611
   - 0.00168910268800479 x612 - 0.00163337087342595 x613
   - 0.00108084642938127 x630 - 0.00101282112963001 x631
   - 9.9266548525925899e-04 x632 - 9.5991256315679609e-04 x633 + x1989
   + x1990 + x1991 + x1992 + x2019 + x2020 + x2021 + x2022 - x2121 - x2122
   - x2123 - x2124 - x2127 - x2128 - x2129 - x2130 - x2133 - x2134 - x2135
   - x2136 - x2139 - x2140 - x2141 - x2142 = 5.421532423707953
 c_e_x2501_: - 0.000672454 x614 - 6.3013179425021879e-04 x615
   - 6.1759185804623434e-04 x616 - 5.9721446171475962e-04 x617
   - 6.0491757250988342e-04 x634 - 5.6684583717709356e-04 x635
   - 5.5556532300441515e-04 x636 - 5.3723448747381255e-04 x637
   - 0.0014870667909092 x698 - 0.00139347517469814 x699
   - 0.00136574432545041 x700 - 0.00132068169542286 x701 + x1995 + x1996
   + x1997 + x1998 + x2025 + x2026 + x2027 + x2028 + x2121 + x2122 + x2123
   + x2124 - x2145 - x2146 - x2147 - x2148 - x2151 - x2152 - x2153 - x2154
   - x2157 - x2158 - x2159 - x2160 = 5.500642382662519
 c_e_x2502_: - 0.00134169707134286 x618 - 0.00125725459832128 x619
   - 0.00123223460631489 x620 - 0.0011915771193045 x621
   - 9.3805438608323766e-04 x638 - 0.000879016 x639
   - 8.6152314246339319e-04 x640 - 8.3309725197602228e-04 x641
   - 0.00123366640579261 x702 - 0.0011560230655679 x703
   - 0.00113301763142724 x704 - 0.00109563380094868 x705
   - 6.788382798253573e-04 x714 - 6.3611419228390116e-04 x715
   - 6.2345520338272914e-04 x716 - 6.0288434641832429e-04 x717 + x2001
   + x2002 + x2003 + x2004 + x2031 + x2032 + x2033 + x2034 + x2127 + x2128
   + x2129 + x2130 + x2145 + x2146 + x2147 + x2148 - x2163 - x2164 - x2165
   - x2166 - x2169 - x2170 - x2171 - x2172 = 1.015599802455136
 c_e_x2503_: - 6.7084853567142859e-04 x622 - 6.2862729916063939e-04 x623
   - 6.1611730315744263e-04 x624 - 5.9578855965224781e-04 x625
   - 0.000526782 x642 - 0.000493628 x643 - 4.8380448659556685e-04 x644
   - 4.6784139439825118e-04 x645 - 0.00142712034273787 x706
   - 0.00133730157990821 x707 - 0.00131068861314387 x708
   - 0.00126744254215181 x709 - 9.685957639316052e-04 x718
   - 9.076351913764692e-04 x719 - 8.895727995082808e-04 x720
   - 8.6022141272247457e-04 x721 - 0.00145134653264219 x726
   - 0.0013600030445738 x727 - 0.00133293830736835 x728
   - 0.0012889581094095 x729 + x2007 + x2008 + x2009 + x2010 + x2037
   + x2038 + x2039 + x2040 + x2133 + x2134 + x2135 + x2136 + x2151 + x2152
   + x2153 + x2154 + x2163 + x2164 + x2165 + x2166 - x2175 - x2176 - x2177
   - x2178 = 1.808140806283232
 c_e_x2504_: - 8.9128879868213872e-04 x626 - 8.3519369946438173e-04 x627
   - 0.000818573 x628 - 7.9156417785057078e-04 x629
   - 1.3406249999999999e-04 x646 - 0.000125625 x647 - 0.000123125 x648
   - 1.190625e-04 x649 - 0.000948723 x710 - 8.8901325215094511e-04 x711
   - 8.7132144613799101e-04 x712 - 8.4257226136694044e-04 x713
   - 6.9918445795798408e-04 x722 - 6.5517984172286619e-04 x723
   - 6.4214143691246101e-04 x724 - 0.000620954 x725
   - 9.3382975939474647e-04 x730 - 8.750572570552169e-04 x731
   - 8.5764318228794901e-04 x732 - 8.2934531079113848e-04 x733
   - 0.000590484 x734 - 5.5332072808182415e-04 x735
   - 5.4230937030905159e-04 x736 - 0.000524416 x737 + x2013 + x2014 + x2015
   + x2016 + x2043 + x2044 + x2045 + x2046 + x2139 + x2140 + x2141 + x2142
   + x2157 + x2158 + x2159 + x2160 + x2169 + x2170 + x2171 + x2172 + x2175
   + x2176 + x2177 + x2178 = 2.895574022482178
 c_e_x2505_: - 4.26344e-07 x530 - 3.99511e-07 x531 - 3.9156e-07 x532
   - 3.78641e-07 x533 - 9.53333e-07 x542 - 8.93333e-07 x543
   - 8.75556e-07 x544 - 8.46667e-07 x545 + x1869 + x1870 + x1871 + x1872
   + x1887 + x1888 + x1889 + x1890 - x2049 - x2050 - x2051 - x2052 - x2055
   - x2056 - x2057 - x2058 = 8.457802474749151
 c_e_x2506_: - 8.52687e-07 x534 - 7.99022e-07 x535 - 7.83121e-07 x536
   - 7.57282e-07 x537 - 6.02941e-07 x546 - 5.64994e-07 x547
   - 5.5375e-07 x548 - 5.35479e-07 x549 - 4.26344e-07 x650
   - 3.99511e-07 x651 - 3.9156e-07 x652 - 3.78641e-07 x653 + x1875 + x1876
   + x1877 + x1878 + x1893 + x1894 + x1895 + x1896 + x2049 + x2050 + x2051
   + x2052 - x2061 - x2062 - x2063 - x2064 = 7.528861158016682
 c_e_x2507_: - 1.07857e-06 x538 - 1.01069e-06 x539 - 9.90578e-07 x540
   - 9.57894e-07 x541 - 2.69643e-07 x550 - 2.52673e-07 x551
   - 2.47645e-07 x552 - 2.39473e-07 x553 - 6.87458e-07 x654
   - 6.44192e-07 x655 - 6.31372e-07 x656 - 6.1054e-07 x657
   - 3.81333e-07 x658 - 3.57333e-07 x659 - 3.50222e-07 x660
   - 3.38667e-07 x661 + x1881 + x1882 + x1883 + x1884 + x1899 + x1900
   + x1901 + x1902 + x2055 + x2056 + x2057 + x2058 + x2061 + x2062 + x2063
   + x2064 = 9.436385927418499
 c_e_x2508_: - 6.02941e-07 x554 - 5.64994e-07 x555 - 5.5375e-07 x556
   - 5.35479e-07 x557 - 2.69643e-07 x566 - 2.52673e-07 x567
   - 2.47645e-07 x568 - 2.39473e-07 x569 + x1905 + x1906 + x1907 + x1908
   + x1923 + x1924 + x1925 + x1926 - x2067 - x2068 - x2069 - x2070 - x2073
   - x2074 - x2075 - x2076 = 6.857084946202273
 c_e_x2509_: - 1.07857e-06 x558 - 1.01069e-06 x559 - 9.90578e-07 x560
   - 9.57894e-07 x561 - 5.39287e-07 x570 - 5.05346e-07 x571
   - 4.95289e-07 x572 - 4.78947e-07 x573 - 6.02941e-07 x662
   - 5.64994e-07 x663 - 5.5375e-07 x664 - 5.35479e-07 x665 + x1911 + x1912
   + x1913 + x1914 + x1929 + x1930 + x1931 + x1932 + x2067 + x2068 + x2069
   + x2070 - x2079 - x2080 - x2081 - x2082 = 10.39199787184116
 c_e_x2510_: - 7.86139e-07 x562 - 7.36662e-07 x563 - 7.22002e-07 x564
   - 6.98179e-07 x565 - 4.26344e-07 x574 - 3.99511e-07 x575
   - 3.9156e-07 x576 - 3.78641e-07 x577 - 6.87458e-07 x666
   - 6.44192e-07 x667 - 6.31372e-07 x668 - 6.1054e-07 x669 - 5.72e-07 x670
   - 5.36e-07 x671 - 5.25333e-07 x672 - 5.08e-07 x673 + x1917 + x1918
   + x1919 + x1920 + x1935 + x1936 + x1937 + x1938 + x2073 + x2074 + x2075
   + x2076 + x2079 + x2080 + x2081 + x2082 = 11.32876269850737
 c_u_x2511_: - 1.53841e-12 x257 - 7.4924e-13 x258 - 6.40822e-13 x259
   - 5.5359e-13 x260 + 1.95627e-06 x741 + 9.76711e-07 x742
   + 7.75111e-07 x743 + 6.15822e-07 x744 + 1.52533e-06 x1461
   + 1.42933e-06 x1462 + 1.40089e-06 x1463 + 1.35467e-06 x1464 - x2512
   + x2513 + 1000 x2514 <= 1000
 c_u_x2515_: - 1.01919e-11 x261 - 4.96371e-12 x262 - 4.24544e-12 x263
   - 3.66753e-12 x264 + 5.03525e-06 x747 + 2.51396e-06 x748
   + 1.99506e-06 x749 + 1.58507e-06 x750 + 3.92607e-06 x1467
   + 3.67897e-06 x1468 + 3.60576e-06 x1469 + 3.48679e-06 x1470 - x2512
   + x2516 + 1000 x2517 <= 1000
 c_u_x2518_: - 1.39418e-11 x265 - 6.78998e-12 x266 - 5.80745e-12 x267
   - 5.01691e-12 x268 + 5.88914e-06 x753 + 2.94029e-06 x754
   + 2.33339e-06 x755 + 1.85387e-06 x756 + 4.59186e-06 x1473
   + 4.30286e-06 x1474 + 4.21723e-06 x1475 + 4.07809e-06 x1476 - x2512
   + x2519 + 1000 x2520 <= 1000
 c_u_x2521_: - 2.12492e-11 x269 - 1.03489e-11 x270 - 8.85135e-12 x271
   - 7.64646e-12 x272 + 7.2705e-06 x759 + 3.62996e-06 x760
   + 2.88071e-06 x761 + 2.28871e-06 x762 + 5.66893e-06 x1479
   + 5.31214e-06 x1480 + 5.20643e-06 x1481 + 5.03464e-06 x1482 - x2512
   + x2522 + 1000 x2523 <= 1000
 c_u_x2524_: - 1.11534e-11 x273 - 5.43199e-12 x274 - 4.64596e-12 x275
   - 4.01353e-12 x276 + 5.26741e-06 x765 + 2.62988e-06 x766
   + 2.08705e-06 x767 + 1.65815e-06 x768 + 4.10709e-06 x1485
   + 3.8486e-06 x1486 + 3.77201e-06 x1487 + 3.64755e-06 x1488 + x2513
   - x2525 + 1000 x2526 <= 1000
 c_u_x2527_: - 1.01919e-11 x277 - 4.96371e-12 x278 - 4.24544e-12 x279
   - 3.66753e-12 x280 + 5.03525e-06 x771 + 2.51396e-06 x772
   + 1.99506e-06 x773 + 1.58507e-06 x774 + 3.92607e-06 x1491
   + 3.67897e-06 x1492 + 3.60576e-06 x1493 + 3.48679e-06 x1494 + x2516
   - x2525 + 1000 x2528 <= 1000
 c_u_x2529_: - 8.17278e-12 x281 - 3.98034e-12 x282 - 3.40437e-12 x283
   - 2.94095e-12 x284 + 4.50897e-06 x777 + 2.25121e-06 x778
   + 1.78654e-06 x779 + 1.4194e-06 x780 + 3.51572e-06 x1497
   + 3.29445e-06 x1498 + 3.22889e-06 x1499 + 3.12235e-06 x1500 + x2519
   - x2525 + 1000 x2530 <= 1000
 c_u_x2531_: - 1.16342e-11 x285 - 5.66612e-12 x286 - 4.84621e-12 x287
   - 4.18652e-12 x288 + 5.37973e-06 x783 + 2.68596e-06 x784
   + 2.13156e-06 x785 + 1.69351e-06 x786 + 4.19467e-06 x1503
   + 3.93067e-06 x1504 + 3.85244e-06 x1505 + 3.72533e-06 x1506 + x2522
   - x2525 + 1000 x2532 <= 1000
 c_u_x2533_: - 4.80752e-13 x289 - 2.34137e-13 x290 - 2.00257e-13 x291
   - 1.72997e-13 x292 + 1.09359e-06 x789 + 5.45998e-07 x790
   + 4.333e-07 x791 + 3.44255e-07 x792 + 8.52687e-07 x1509
   + 7.99022e-07 x1510 + 7.83121e-07 x1511 + 7.57282e-07 x1512 - x2513
   + x2534 + 1000 x2535 <= 1000
 c_u_x2536_: - 1.92301e-12 x293 - 9.36549e-13 x294 - 8.01027e-13 x295
   - 6.91987e-13 x296 + 2.18717e-06 x795 + 1.092e-06 x796
   + 8.66601e-07 x797 + 6.8851e-07 x798 + 1.70537e-06 x1515
   + 1.59804e-06 x1516 + 1.56624e-06 x1517 + 1.51456e-06 x1518 - x2513
   + x2537 + 1000 x2538 <= 1000
 c_u_x2539_: - 3.07681e-12 x297 - 1.49848e-12 x298 - 1.28164e-12 x299
   - 1.10718e-12 x300 + 2.76658e-06 x801 + 1.38128e-06 x802
   + 1.09617e-06 x803 + 8.70904e-07 x804 + 2.15715e-06 x1521
   + 2.02138e-06 x1522 + 1.98116e-06 x1523 + 1.91579e-06 x1524 - x2513
   + x2540 + 1000 x2541 <= 1000
 c_u_x2542_: - 2.40376e-12 x301 - 1.17069e-12 x302 - 1.00128e-12 x303
   - 8.64984e-13 x304 + 2.44533e-06 x807 + 1.22089e-06 x808
   + 9.68889e-07 x809 + 7.69778e-07 x810 + 1.90667e-06 x1527
   + 1.78667e-06 x1528 + 1.75111e-06 x1529 + 1.69333e-06 x1530 - x2516
   + x2534 + 1000 x2543 <= 1000
 c_u_x2544_: - 9.61503e-13 x305 - 4.68275e-13 x306 - 4.00514e-13 x307
   - 3.45994e-13 x308 + 1.54656e-06 x813 + 7.72158e-07 x814
   + 6.12779e-07 x815 + 4.8685e-07 x816 + 1.20588e-06 x1533
   + 1.12999e-06 x1534 + 1.1075e-06 x1535 + 1.07096e-06 x1536 - x2516
   + x2537 + 1000 x2545 <= 1000
 c_u_x2546_: - 1.92301e-13 x309 + 6.91645e-07 x819 + 3.4532e-07 x820
   + 2.74043e-07 x821 + 2.17726e-07 x822 + 5.39287e-07 x1539
   + 5.05346e-07 x1540 + 4.95289e-07 x1541 + 4.78947e-07 x1542 - x2516
   + x2540 + 1000 x2547 <= 1000
 c_u_x2548_: - 9.61503e-13 x313 - 4.68275e-13 x314 - 4.00514e-13 x315
   - 3.45994e-13 x316 + 1.54656e-06 x825 + 7.72158e-07 x826
   + 6.12779e-07 x827 + 4.8685e-07 x828 + 1.20588e-06 x1545
   + 1.12999e-06 x1546 + 1.1075e-06 x1547 + 1.07096e-06 x1548 - x2519
   + x2549 + 1000 x2550 <= 1000
 c_u_x2551_: - 3.07681e-12 x317 - 1.49848e-12 x318 - 1.28164e-12 x319
   - 1.10718e-12 x320 + 2.76658e-06 x831 + 1.38128e-06 x832
   + 1.09617e-06 x833 + 8.70904e-07 x834 + 2.15715e-06 x1551
   + 2.02138e-06 x1552 + 1.98116e-06 x1553 + 1.91579e-06 x1554 - x2519
   + x2552 + 1000 x2553 <= 1000
 c_u_x2554_: - 1.63456e-12 x321 - 7.96067e-13 x322 - 6.80873e-13 x323
   - 5.88189e-13 x324 + 2.01647e-06 x837 + 1.00677e-06 x838
   + 7.98966e-07 x839 + 6.34775e-07 x840 + 1.57228e-06 x1557
   + 1.47332e-06 x1558 + 1.444e-06 x1559 + 1.39636e-06 x1560 - x2519
   + x2555 + 1000 x2556 <= 1000
 c_u_x2557_: - 1.92301e-13 x325 + 6.91645e-07 x843 + 3.4532e-07 x844
   + 2.74043e-07 x845 + 2.17726e-07 x846 + 5.39287e-07 x1563
   + 5.05346e-07 x1564 + 4.95289e-07 x1565 + 4.78947e-07 x1566 - x2522
   + x2549 + 1000 x2558 <= 1000
 c_u_x2559_: - 7.69203e-13 x329 - 3.7462e-13 x330 - 3.20411e-13 x331
   - 2.76795e-13 x332 + 1.38329e-06 x849 + 6.90639e-07 x850
   + 5.48086e-07 x851 + 4.35452e-07 x852 + 1.07857e-06 x1569
   + 1.01069e-06 x1570 + 9.90578e-07 x1571 + 9.57894e-07 x1572 - x2522
   + x2552 + 1000 x2560 <= 1000
 c_u_x2561_: - 4.80752e-13 x333 - 2.34137e-13 x334 - 2.00257e-13 x335
   - 1.72997e-13 x336 + 1.09359e-06 x855 + 5.45998e-07 x856
   + 4.333e-07 x857 + 3.44255e-07 x858 + 8.52687e-07 x1575
   + 7.99022e-07 x1576 + 7.83121e-07 x1577 + 7.57282e-07 x1578 - x2522
   + x2555 + 1000 x2562 <= 1000
 c_u_x2563_: - 3.51761e-07 x337 - 1.71316e-07 x338 - 1.46526e-07 x339
   - 1.2658e-07 x340 + 9.3544113423828029e-04 x861
   + 4.6704049359370335e-04 x862 + 0.00037064 x863
   + 2.9447183651412238e-04 x864 + 7.2937885603093823e-04 x1581
   + 6.834738930639561e-04 x1582 + 6.6987242255522059e-04 x1583
   + 0.00064777 x1584 - x2513 + x2564 + 1000 x2565 <= 1000
 c_u_x2566_: - 1.19599e-06 x341 - 5.82474e-07 x342 - 4.98188e-07 x343
   - 4.30372e-07 x344 + 0.00172486822485806 x867
   + 8.6118011880863233e-04 x868 + 6.8342652311715278e-04 x869
   + 5.4297923763252679e-04 x870 + 0.00134490815787733 x1587
   + 0.00126026358850044 x1588 + 0.00123518371609247 x1589
   + 0.00119442892342952 x1590 - x2513 + x2567 + 1000 x2568 <= 1000
 c_u_x2569_: - 4.95317e-06 x345 - 2.41231e-06 x346 - 2.06324e-06 x347
   - 1.78238e-06 x348 + 0.0035102210226886 x873 + 0.00175255855131327 x874
   + 0.00139081821691406 x875 + 0.00110499869343814 x876
   + 0.002736977133285 x1593 + 0.00256471983119014 x1594
   + 0.00251368063056944 x1595 + 0.00243074192956081 x1596 - x2513 + x2570
   + 1000 x2571 <= 1000
 c_u_x2572_: - 1.09521e-06 x349 - 5.33394e-07 x350 - 4.5621e-07 x351
   - 3.94108e-07 x352 + 0.0016506 x879 + 0.0008241 x880 + 0.000654 x881
   + 0.0005196 x882 + 0.001287 x1599 + 0.001206 x1600 + 0.001182 x1601
   + 0.001143 x1602 - x2513 + x2573 + 1000 x2574 <= 1000
 c_u_x2575_: - 6.24613e-06 x353 - 3.04201e-06 x354 - 2.60182e-06 x355
   - 2.24765e-06 x356 + 0.00394183359023754 x885 + 0.00196805104914259 x886
   + 0.00156183155701887 x887 + 0.00124086800768655 x888
   + 0.00307351255945457 x1605 + 0.00288007470606233 x1606
   + 0.0028227597865387 x1607 + 0.0027296230423128 x1608 - x2516 + x2564
   + 1000 x2576 <= 1000
 c_u_x2577_: - 6.32979e-06 x357 - 3.08276e-06 x358 - 2.63667e-06 x359
   - 2.27775e-06 x360 + 0.00396814466478038 x891 + 0.00198118745804284 x892
   + 0.00157225651930593 x893 + 0.00124915059240269 x894
   + 0.00309402773753323 x1611 + 0.00289929871908708 x1612
   + 0.00284160123214008 x1613 + 0.00274784281585119 x1614 - x2516 + x2567
   + 1000 x2578 <= 1000
 c_u_x2579_: - 4.38275e-06 x361 - 2.1345e-06 x362 - 1.82563e-06 x363
   - 1.57712e-06 x364 + 0.00330191632853181 x897 + 0.00164855764348907 x898
   + 0.0013082838233732 x899 + 0.00103942549636807 x900
   + 0.00257455853315185 x1617 + 0.00241252338071572 x1618
   + 0.00236451296517909 x1619 + 0.00228649603993206 x1620 - x2516 + x2570
   + 1000 x2580 <= 1000
 c_u_x2581_: - 6.03888e-06 x365 - 2.94108e-06 x366 - 2.51549e-06 x367
   - 2.17307e-06 x368 + 0.00387588467127184 x903 + 0.0019351245350752 x904
   + 0.00153570130559299 x905 + 0.00122010764279223 x906
   + 0.00302209110137335 x1623 + 0.00283188956352468 x1624
   + 0.00277553355231026 x1625 + 0.00268395503408682 x1626 - x2516 + x2573
   + 1000 x2582 <= 1000
 c_u_x2583_: - 8.94614e-06 x369 - 4.35698e-06 x370 - 3.72651e-06 x371
   - 3.21924e-06 x372 + 0.00471748375096566 x909 + 0.0023553122253549 x910
   + 0.00186915931972103 x911 + 0.00148503850539304 x912
   + 0.00367829976220332 x1629 + 0.00344679837856815 x1630
   + 0.00337820537600958 x1631 + 0.0032667417468519 x1632 - x2519 + x2584
   + 1000 x2585 <= 1000
 c_u_x2586_: - 1.19599e-06 x373 - 5.82474e-07 x374 - 4.98188e-07 x375
   - 4.30372e-07 x376 + 0.00172486822485806 x915
   + 8.6118011880863233e-04 x916 + 6.8342652311715278e-04 x917
   + 5.4297923763252679e-04 x918 + 0.00134490815787733 x1635
   + 0.00126026358850044 x1636 + 0.00123518371609247 x1637
   + 0.00119442892342952 x1638 - x2519 + x2587 + 1000 x2588 <= 1000
 c_u_x2589_: - 4.76113e-06 x377 - 2.31878e-06 x378 - 1.98325e-06 x379
   - 1.71328e-06 x380 + 0.0034415 x921 + 0.00171824795103908 x922
   + 0.00136358956434845 x923 + 0.00108336565387684 x924
   + 0.00268339414268571 x1641 + 0.00251450919664256 x1642
   + 0.00246446921262977 x1643 + 0.00238315423860899 x1644 - x2519 + x2590
   + 1000 x2591 <= 1000
 c_u_x2592_: - 1.19028e-06 x381 - 5.79696e-07 x382 - 4.95812e-07 x383
   - 4.28319e-07 x384 + 0.00172075 x927 + 0.000859124 x928
   + 6.8179478217422589e-04 x929 + 5.4168282693842164e-04 x930
   + 0.00134169707134286 x1647 + 0.00125725459832128 x1648
   + 0.00123223460631489 x1649 + 0.0011915771193045 x1650 - x2519 + x2593
   + 1000 x2594 <= 1000
 c_u_x2595_: - 2.10106e-06 x385 - 1.02326e-06 x386 - 8.75195e-07 x387
   - 7.56058e-07 x388 + 0.0022861869325637 x933 + 0.00114143138926799 x934
   + 0.000905832 x935 + 7.1967934700114882e-04 x936
   + 0.00178257759736428 x1653 + 0.00167038739892876 x1654
   + 0.00163714585865157 x1655 + 0.00158312835570114 x1656 - x2519 + x2596
   + 1000 x2597 <= 1000
 c_u_x2598_: - 3.08979e-06 x389 - 1.5048e-06 x390 - 1.28705e-06 x391
   - 1.11185e-06 x392 + 0.00277240888319616 x939 + 0.00138418887716101 x940
   + 0.00109848261820568 x941 + 8.7273940125331788e-04 x942
   + 0.00216169285876255 x1659 + 0.00202564225926001 x1660
   + 0.00198533097051852 x1661 + 0.00191982512631359 x1662 - x2522 + x2584
   + 1000 x2599 <= 1000
 c_u_x2600_: - 9.67818e-07 x393 - 4.7135e-07 x394 - 4.03144e-07 x395
   - 3.48266e-07 x396 + 0.00155163472445192 x945
   + 7.746893108086946e-04 x946 + 0.000614788 x947
   + 4.8844626367697817e-04 x948 + 0.00120983514501977 x1665
   + 0.00113369167435419 x1666 + 0.00111113064600883 x1667
   + 0.00107446897494763 x1668 - x2522 + x2587 + 1000 x2601 <= 1000
 c_u_x2602_: - 2.32733e-06 x397 - 1.13346e-06 x398 - 9.69446e-07 x399
   - 8.3748e-07 x400 + 0.00240614229940791 x951 + 0.0012013218641355 x952
   + 9.5336063480720669e-04 x953 + 7.5744065114040447e-04 x954
   + 0.00187610877216648 x1671 + 0.00175803199629586 x1672
   + 0.00172304628492679 x1673 + 0.00166619450395204 x1674 - x2522 + x2590
   + 1000 x2603 <= 1000
 c_u_x2604_: - 7.33944e-07 x401 - 3.57448e-07 x402 - 3.05724e-07 x403
   - 2.64107e-07 x404 + 0.00135121435799432 x957
   + 6.7462483486194018e-04 x958 + 5.3537755369458667e-04 x959
   + 0.000425355 x960 + 0.00105356408502283 x1677
   + 9.8725585589552202e-04 x1678 + 0.000967609 x1679
   + 9.3568278879650225e-04 x1680 - x2522 + x2593 + 1000 x2605 <= 1000
 c_u_x2606_: - 4.75353e-08 x405 - 2.31508e-08 x406 - 1.98008e-08 x407
   - 1.71054e-08 x408 + 0.000343875 x963 + 1.7168749999999999e-04 x964
   + 0.00013625 x965 + 0.00010825 x966 + 0.000268125 x1683
   + 0.00025125 x1684 + 0.00024625 x1685 + 0.000238125 x1686 - x2522
   + x2596 + 1000 x2607 <= 1000
 c_u_x2608_: - 4.80752e-13 x409 - 2.34137e-13 x410 - 2.00257e-13 x411
   - 1.72997e-13 x412 + 1.09359e-06 x969 + 5.45998e-07 x970
   + 4.333e-07 x971 + 3.44255e-07 x972 + 8.52687e-07 x1689
   + 7.99022e-07 x1690 + 7.83121e-07 x1691 + 7.57282e-07 x1692 - x2534
   + x2537 + 1000 x2609 <= 1000
 c_u_x2610_: - 1.24995e-12 x413 - 6.08757e-13 x414 - 5.20668e-13 x415
   - 4.49792e-13 x416 + 1.76335e-06 x975 + 8.80395e-07 x976
   + 6.98676e-07 x977 + 5.55095e-07 x978 + 1.37492e-06 x1695
   + 1.28838e-06 x1696 + 1.26274e-06 x1697 + 1.22108e-06 x1698 - x2534
   + x2540 + 1000 x2611 <= 1000
 c_u_x2612_: - 3.84601e-13 x417 - 1.8731e-13 x418 - 1.60205e-13 x419
   - 1.38397e-13 x420 + 9.78133e-07 x981 + 4.88356e-07 x982
   + 3.87556e-07 x983 + 3.07911e-07 x984 + 7.62667e-07 x1701
   + 7.14667e-07 x1702 + 7.00444e-07 x1703 + 6.77333e-07 x1704 - x2537
   + x2540 + 1000 x2613 <= 1000
 c_u_x2614_: - 9.61503e-13 x421 - 4.68275e-13 x422 - 4.00514e-13 x423
   - 3.45994e-13 x424 + 1.54656e-06 x987 + 7.72158e-07 x988
   + 6.12779e-07 x989 + 4.8685e-07 x990 + 1.20588e-06 x1707
   + 1.12999e-06 x1708 + 1.1075e-06 x1709 + 1.07096e-06 x1710 - x2549
   + x2552 + 1000 x2615 <= 1000
 c_u_x2616_: - 1.24995e-12 x425 - 6.08757e-13 x426 - 5.20668e-13 x427
   - 4.49792e-13 x428 + 1.76335e-06 x993 + 8.80395e-07 x994
   + 6.98676e-07 x995 + 5.55095e-07 x996 + 1.37492e-06 x1713
   + 1.28838e-06 x1714 + 1.26274e-06 x1715 + 1.22108e-06 x1716 - x2549
   + x2555 + 1000 x2617 <= 1000
 c_u_x2618_: - 8.65353e-13 x429 - 4.21447e-13 x430 - 3.60462e-13 x431
   - 3.11394e-13 x432 + 1.4672e-06 x999 + 7.32533e-07 x1000
   + 5.81333e-07 x1001 + 4.61867e-07 x1002 + 1.144e-06 x1719
   + 1.072e-06 x1720 + 1.05067e-06 x1721 + 1.016e-06 x1722 - x2552 + x2555
   + 1000 x2619 <= 1000
 c_u_x2620_: - 5.62817e-07 x433 - 2.74105e-07 x434 - 2.34441e-07 x435
   - 2.02528e-07 x436 + 0.00118324984048171 x1005
   + 5.9076468771415236e-04 x1006 + 4.6882672705382322e-04 x1007
   + 3.7248068406294573e-04 x1008 + 9.2259938489032173e-04 x1725
   + 8.6453368933778413e-04 x1726 + 0.000847329 x1727
   + 8.1937148168581022e-04 x1728 - x2564 + x2567 + 1000 x2621 <= 1000
 c_u_x2622_: - 3.11071e-06 x437 - 1.51499e-06 x438 - 1.29576e-06 x439
   - 1.11938e-06 x440 + 0.00278177659464235 x1011
   + 0.00138886592247956 x1012 + 0.00110219428868054 x1013
   + 8.7568830641958438e-04 x1014 + 0.0021689970176328 x1731
   + 0.00203248671582375 x1732 + 0.00199203921899143 x1733
   + 0.00192631203663892 x1734 - x2564 + x2570 + 1000 x2623 <= 1000
 c_u_x2624_: - 7.16832e-07 x441 - 3.49114e-07 x442 - 2.98596e-07 x443
   - 2.57949e-07 x444 + 0.00133536895112362 x1017
   + 6.6671365116986313e-04 x1018 + 5.290992936113221e-04 x1019
   + 0.000420367 x1020 + 0.00104120916036356 x1737
   + 9.7567851390711685e-04 x1738 + 0.000956262 x1739
   + 9.2471023332987953e-04 x1740 - x2564 + x2573 + 1000 x2625 <= 1000
 c_u_x2626_: - 1.31578e-06 x445 - 6.40814e-07 x446 - 5.48086e-07 x447
   - 4.73477e-07 x448 + 0.00180918778254221 x1023
   + 9.0327859662730863e-04 x1024 + 7.1683558086914183e-04 x1025
   + 5.6952258076392365e-04 x1026 + 0.00141065350547184 x1743
   + 0.00132187111701557 x1744 + 0.00129556522413964 x1745
   + 0.00125281814821625 x1746 - x2567 + x2570 + 1000 x2627 <= 1000
 c_u_x2628_: - 2.47373e-06 x449 - 1.20477e-06 x450 - 1.03043e-06 x451
   - 8.90165e-07 x452 + 0.00248067144400967 x1029
   + 0.00123853225312515 x1030 + 9.828905394294932e-04 x1031
   + 0.000780902 x1032 + 0.00193422037346446 x1749
   + 0.00181248622408558 x1750 + 0.00177641684649184 x1751
   + 0.001717804107902 x1752 - x2567 + x2573 + 1000 x2629 <= 1000
 c_u_x2630_: - 5.86585e-06 x453 - 2.85681e-06 x454 - 2.44342e-06 x455
   - 2.11081e-06 x456 + 0.00381995444058237 x1035 + 0.0019072 x1036
   + 0.00151354065439287 x1037 + 0.0012025011070681 x1038
   + 0.00297848137951625 x1755 + 0.00279102450947676 x1756
   + 0.00273548173316877 x1757 + 0.00264522472166827 x1758 - x2570 + x2573
   + 1000 x2631 <= 1000
 c_u_x2632_: - 5.84874e-06 x457 - 2.84847e-06 x458 - 2.43629e-06 x459
   - 2.10465e-06 x460 + 0.00381437831402445 x1041
   + 0.00190441607208745 x1042 + 0.00151133128400096 x1043
   + 0.00120074577242645 x1044 + 0.00297413358181841 x1761
   + 0.00278695034939627 x1762 + 0.00273148865090082 x1763
   + 0.00264136339084572 x1764 - x2584 + x2587 + 1000 x2633 <= 1000
 c_u_x2634_: - 4.02529e-06 x461 - 1.96041e-06 x462 - 1.67673e-06 x463
   - 1.44848e-06 x464 + 0.00316439746604705 x1047
   + 0.00157989818960946 x1048 + 0.00125379616066568 x1049
   + 9.9613529829034771e-04 x1050 + 0.00246733281158521 x1767
   + 0.0023120461311358 x1768 + 0.00226603526285449 x1769
   + 0.00219126760189736 x1770 - x2584 + x2590 + 1000 x2635 <= 1000
 c_u_x2636_: - 5.3867e-06 x465 - 2.62345e-06 x466 - 2.24382e-06 x467
   - 1.93838e-06 x468 + 0.00366061357843532 x1053
   + 0.00182764549254122 x1054 + 0.00145040668865667 x1055
   + 0.00115234146089603 x1056 + 0.00285424068547574 x1773
   + 0.00267460315981642 x1774 + 0.00262137722628774 x1775
   + 0.00253488508430363 x1776 - x2584 + x2593 + 1000 x2637 <= 1000
 c_u_x2638_: - 2.38057e-06 x469 - 1.15939e-06 x470 - 9.91623e-07 x471
   - 8.56638e-07 x472 + 0.00243350791708184 x1059
   + 0.00121498477793963 x1060 + 9.6420342770600024e-04 x1061
   + 7.6605520036091392e-04 x1062 + 0.00189744619488933 x1779
   + 0.00177802650430189 x1780 + 0.00174264289227598 x1781
   + 0.00168514452273388 x1782 - x2584 + x2596 + 1000 x2639 <= 1000
 c_u_x2640_: - 1.2188e-06 x473 - 5.93586e-07 x474 - 5.07692e-07 x475
   - 4.38582e-07 x476 + 0.00174124392335623 x1065 + 0.000869356 x1066
   + 6.8991489511388299e-04 x1067 + 5.4813421942075471e-04 x1068
   + 0.00135767655965071 x1785 + 0.0012722283845678 x1786
   + 0.00124691040676546 x1787 + 0.00120576869283665 x1788 - x2587 + x2590
   + 1000 x2641 <= 1000
 c_u_x2642_: - 2.48134e-06 x477 - 1.20847e-06 x478 - 1.0336e-06 x479
   - 8.92902e-07 x480 + 0.00248448200146932 x1071
   + 0.00124043476154784 x1072 + 9.8440035681626997e-04 x1073
   + 7.8210156789255958e-04 x1074 + 0.00193719152786321 x1791
   + 0.00181527038275294 x1792 + 0.00177914559901656 x1793
   + 0.00172044282544495 x1794 - x2587 + x2593 + 1000 x2643 <= 1000
 c_u_x2644_: - 1.29296e-06 x481 - 6.29701e-07 x482 - 5.38581e-07 x483
   - 4.65267e-07 x484 + 0.00179343258167125 x1077
   + 8.9541245035458386e-04 x1078 + 0.000710593 x1079 + 0.000564563 x1080
   + 0.00139836891591597 x1797 + 0.00131035968344573 x1798
   + 0.00128428287382492 x1799 + 0.0012419080581911 x1800 - x2587 + x2596
   + 1000 x2645 <= 1000
 c_u_x2646_: - 5.57113e-06 x485 - 2.71327e-06 x486 - 2.32065e-06 x487
   - 2.00475e-06 x488 + 0.00372275460260947 x1083
   + 0.00185867082758419 x1084 + 0.00147502817769695 x1085
   + 0.00117190312099593 x1086 + 0.00290269306528437 x1803
   + 0.0027200060891476 x1804 + 0.0026658766147367 x1805
   + 0.00257791621881899 x1806 - x2590 + x2593 + 1000 x2647 <= 1000
 c_u_x2648_: - 2.30641e-06 x489 - 1.12328e-06 x490 - 9.60734e-07 x491
   - 8.29954e-07 x492 + 0.00239530598423771 x1089
   + 0.00119591158464213 x1090 + 0.000949067 x1091
   + 7.5402943742270421e-04 x1092 + 0.00186765951878949 x1809
   + 0.00175011451411043 x1810 + 0.0017152863645759 x1811
   + 0.00165869062158228 x1812 - x2590 + x2596 + 1000 x2649 <= 1000
 c_u_x2650_: - 9.22184e-07 x493 - 4.49125e-07 x494 - 3.84135e-07 x495
   - 3.31845e-07 x496 + 0.00151461226164487 x1095 + 0.000756205 x1096
   + 0.000600119 x1097 + 4.767917915610544e-04 x1098
   + 0.00118096812112986 x1815 + 0.00110664145616365 x1816
   + 0.0010846187406181 x1817 + 0.00104883182785659 x1818 - x2593 + x2596
   + 1000 x2651 <= 1000
 c_u_x2652_: - 1.53841e-12 x498 - 7.4924e-13 x499 - 6.40822e-13 x500
   - 5.5359e-13 x501 + 1.95627e-06 x1101 + 9.76711e-07 x1102
   + 7.75111e-07 x1103 + 6.15822e-07 x1104 + 1.52533e-06 x1821
   + 1.42933e-06 x1822 + 1.40089e-06 x1823 + 1.35467e-06 x1824 + 1000 x2514
   - x2653 + x2654 <= 1000
 c_u_x2655_: - 1.01919e-11 x502 - 4.96371e-12 x503 - 4.24544e-12 x504
   - 3.66753e-12 x505 + 5.03525e-06 x1107 + 2.51396e-06 x1108
   + 1.99506e-06 x1109 + 1.58507e-06 x1110 + 3.92607e-06 x1827
   + 3.67897e-06 x1828 + 3.60576e-06 x1829 + 3.48679e-06 x1830 + 1000 x2517
   - x2653 + x2656 <= 1000
 c_u_x2657_: - 1.39418e-11 x506 - 6.78998e-12 x507 - 5.80745e-12 x508
   - 5.01691e-12 x509 + 5.88914e-06 x1113 + 2.94029e-06 x1114
   + 2.33339e-06 x1115 + 1.85387e-06 x1116 + 4.59186e-06 x1833
   + 4.30286e-06 x1834 + 4.21723e-06 x1835 + 4.07809e-06 x1836 + 1000 x2520
   - x2653 + x2658 <= 1000
 c_u_x2659_: - 2.12492e-11 x510 - 1.03489e-11 x511 - 8.85135e-12 x512
   - 7.64646e-12 x513 + 7.2705e-06 x1119 + 3.62996e-06 x1120
   + 2.88071e-06 x1121 + 2.28871e-06 x1122 + 5.66893e-06 x1839
   + 5.31214e-06 x1840 + 5.20643e-06 x1841 + 5.03464e-06 x1842 + 1000 x2523
   - x2653 + x2660 <= 1000
 c_u_x2661_: - 1.11534e-11 x514 - 5.43199e-12 x515 - 4.64596e-12 x516
   - 4.01353e-12 x517 + 5.26741e-06 x1125 + 2.62988e-06 x1126
   + 2.08705e-06 x1127 + 1.65815e-06 x1128 + 4.10709e-06 x1845
   + 3.8486e-06 x1846 + 3.77201e-06 x1847 + 3.64755e-06 x1848 + 1000 x2526
   + x2654 - x2662 <= 1000
 c_u_x2663_: - 1.01919e-11 x518 - 4.96371e-12 x519 - 4.24544e-12 x520
   - 3.66753e-12 x521 + 5.03525e-06 x1131 + 2.51396e-06 x1132
   + 1.99506e-06 x1133 + 1.58507e-06 x1134 + 3.92607e-06 x1851
   + 3.67897e-06 x1852 + 3.60576e-06 x1853 + 3.48679e-06 x1854 + 1000 x2528
   + x2656 - x2662 <= 1000
 c_u_x2664_: - 8.17278e-12 x522 - 3.98034e-12 x523 - 3.40437e-12 x524
   - 2.94095e-12 x525 + 4.50897e-06 x1137 + 2.25121e-06 x1138
   + 1.78654e-06 x1139 + 1.4194e-06 x1140 + 3.51572e-06 x1857
   + 3.29445e-06 x1858 + 3.22889e-06 x1859 + 3.12235e-06 x1860 + 1000 x2530
   + x2658 - x2662 <= 1000
 c_u_x2665_: - 1.16342e-11 x526 - 5.66612e-12 x527 - 4.84621e-12 x528
   - 4.18652e-12 x529 + 5.37973e-06 x1143 + 2.68596e-06 x1144
   + 2.13156e-06 x1145 + 1.69351e-06 x1146 + 4.19467e-06 x1863
   + 3.93067e-06 x1864 + 3.85244e-06 x1865 + 3.72533e-06 x1866 + 1000 x2532
   + x2660 - x2662 <= 1000
 c_u_x2666_: - 4.80752e-13 x530 - 2.34137e-13 x531 - 2.00257e-13 x532
   - 1.72997e-13 x533 + 1.09359e-06 x1149 + 5.45998e-07 x1150
   + 4.333e-07 x1151 + 3.44255e-07 x1152 + 8.52687e-07 x1869
   + 7.99022e-07 x1870 + 7.83121e-07 x1871 + 7.57282e-07 x1872 + 1000 x2535
   - x2654 + x2667 <= 1000
 c_u_x2668_: - 1.92301e-12 x534 - 9.36549e-13 x535 - 8.01027e-13 x536
   - 6.91987e-13 x537 + 2.18717e-06 x1155 + 1.092e-06 x1156
   + 8.66601e-07 x1157 + 6.8851e-07 x1158 + 1.70537e-06 x1875
   + 1.59804e-06 x1876 + 1.56624e-06 x1877 + 1.51456e-06 x1878 + 1000 x2538
   - x2654 + x2669 <= 1000
 c_u_x2670_: - 3.07681e-12 x538 - 1.49848e-12 x539 - 1.28164e-12 x540
   - 1.10718e-12 x541 + 2.76658e-06 x1161 + 1.38128e-06 x1162
   + 1.09617e-06 x1163 + 8.70904e-07 x1164 + 2.15715e-06 x1881
   + 2.02138e-06 x1882 + 1.98116e-06 x1883 + 1.91579e-06 x1884 + 1000 x2541
   - x2654 + x2671 <= 1000
 c_u_x2672_: - 2.40376e-12 x542 - 1.17069e-12 x543 - 1.00128e-12 x544
   - 8.64984e-13 x545 + 2.44533e-06 x1167 + 1.22089e-06 x1168
   + 9.68889e-07 x1169 + 7.69778e-07 x1170 + 1.90667e-06 x1887
   + 1.78667e-06 x1888 + 1.75111e-06 x1889 + 1.69333e-06 x1890 + 1000 x2543
   - x2656 + x2667 <= 1000
 c_u_x2673_: - 9.61503e-13 x546 - 4.68275e-13 x547 - 4.00514e-13 x548
   - 3.45994e-13 x549 + 1.54656e-06 x1173 + 7.72158e-07 x1174
   + 6.12779e-07 x1175 + 4.8685e-07 x1176 + 1.20588e-06 x1893
   + 1.12999e-06 x1894 + 1.1075e-06 x1895 + 1.07096e-06 x1896 + 1000 x2545
   - x2656 + x2669 <= 1000
 c_u_x2674_: - 1.92301e-13 x550 + 6.91645e-07 x1179 + 3.4532e-07 x1180
   + 2.74043e-07 x1181 + 2.17726e-07 x1182 + 5.39287e-07 x1899
   + 5.05346e-07 x1900 + 4.95289e-07 x1901 + 4.78947e-07 x1902 + 1000 x2547
   - x2656 + x2671 <= 1000
 c_u_x2675_: - 9.61503e-13 x554 - 4.68275e-13 x555 - 4.00514e-13 x556
   - 3.45994e-13 x557 + 1.54656e-06 x1185 + 7.72158e-07 x1186
   + 6.12779e-07 x1187 + 4.8685e-07 x1188 + 1.20588e-06 x1905
   + 1.12999e-06 x1906 + 1.1075e-06 x1907 + 1.07096e-06 x1908 + 1000 x2550
   - x2658 + x2676 <= 1000
 c_u_x2677_: - 3.07681e-12 x558 - 1.49848e-12 x559 - 1.28164e-12 x560
   - 1.10718e-12 x561 + 2.76658e-06 x1191 + 1.38128e-06 x1192
   + 1.09617e-06 x1193 + 8.70904e-07 x1194 + 2.15715e-06 x1911
   + 2.02138e-06 x1912 + 1.98116e-06 x1913 + 1.91579e-06 x1914 + 1000 x2553
   - x2658 + x2678 <= 1000
 c_u_x2679_: - 1.63456e-12 x562 - 7.96067e-13 x563 - 6.80873e-13 x564
   - 5.88189e-13 x565 + 2.01647e-06 x1197 + 1.00677e-06 x1198
   + 7.98966e-07 x1199 + 6.34775e-07 x1200 + 1.57228e-06 x1917
   + 1.47332e-06 x1918 + 1.444e-06 x1919 + 1.39636e-06 x1920 + 1000 x2556
   - x2658 + x2680 <= 1000
 c_u_x2681_: - 1.92301e-13 x566 + 6.91645e-07 x1203 + 3.4532e-07 x1204
   + 2.74043e-07 x1205 + 2.17726e-07 x1206 + 5.39287e-07 x1923
   + 5.05346e-07 x1924 + 4.95289e-07 x1925 + 4.78947e-07 x1926 + 1000 x2558
   - x2660 + x2676 <= 1000
 c_u_x2682_: - 7.69203e-13 x570 - 3.7462e-13 x571 - 3.20411e-13 x572
   - 2.76795e-13 x573 + 1.38329e-06 x1209 + 6.90639e-07 x1210
   + 5.48086e-07 x1211 + 4.35452e-07 x1212 + 1.07857e-06 x1929
   + 1.01069e-06 x1930 + 9.90578e-07 x1931 + 9.57894e-07 x1932 + 1000 x2560
   - x2660 + x2678 <= 1000
 c_u_x2683_: - 4.80752e-13 x574 - 2.34137e-13 x575 - 2.00257e-13 x576
   - 1.72997e-13 x577 + 1.09359e-06 x1215 + 5.45998e-07 x1216
   + 4.333e-07 x1217 + 3.44255e-07 x1218 + 8.52687e-07 x1935
   + 7.99022e-07 x1936 + 7.83121e-07 x1937 + 7.57282e-07 x1938 + 1000 x2562
   - x2660 + x2680 <= 1000
 c_u_x2684_: - 3.51761e-07 x578 - 1.71316e-07 x579 - 1.46526e-07 x580
   - 1.2658e-07 x581 + 9.3544113423828029e-04 x1221
   + 4.6704049359370335e-04 x1222 + 0.00037064 x1223
   + 2.9447183651412238e-04 x1224 + 7.2937885603093823e-04 x1941
   + 6.834738930639561e-04 x1942 + 6.6987242255522059e-04 x1943
   + 0.00064777 x1944 + 1000 x2565 - x2654 + x2685 <= 1000
 c_u_x2686_: - 1.19599e-06 x582 - 5.82474e-07 x583 - 4.98188e-07 x584
   - 4.30372e-07 x585 + 0.00172486822485806 x1227
   + 8.6118011880863233e-04 x1228 + 6.8342652311715278e-04 x1229
   + 5.4297923763252679e-04 x1230 + 0.00134490815787733 x1947
   + 0.00126026358850044 x1948 + 0.00123518371609247 x1949
   + 0.00119442892342952 x1950 + 1000 x2568 - x2654 + x2687 <= 1000
 c_u_x2688_: - 4.95317e-06 x586 - 2.41231e-06 x587 - 2.06324e-06 x588
   - 1.78238e-06 x589 + 0.0035102210226886 x1233
   + 0.00175255855131327 x1234 + 0.00139081821691406 x1235
   + 0.00110499869343814 x1236 + 0.002736977133285 x1953
   + 0.00256471983119014 x1954 + 0.00251368063056944 x1955
   + 0.00243074192956081 x1956 + 1000 x2571 - x2654 + x2689 <= 1000
 c_u_x2690_: - 1.09521e-06 x590 - 5.33394e-07 x591 - 4.5621e-07 x592
   - 3.94108e-07 x593 + 0.0016506 x1239 + 0.0008241 x1240 + 0.000654 x1241
   + 0.0005196 x1242 + 0.001287 x1959 + 0.001206 x1960 + 0.001182 x1961
   + 0.001143 x1962 + 1000 x2574 - x2654 + x2691 <= 1000
 c_u_x2692_: - 6.24613e-06 x594 - 3.04201e-06 x595 - 2.60182e-06 x596
   - 2.24765e-06 x597 + 0.00394183359023754 x1245
   + 0.00196805104914259 x1246 + 0.00156183155701887 x1247
   + 0.00124086800768655 x1248 + 0.00307351255945457 x1965
   + 0.00288007470606233 x1966 + 0.0028227597865387 x1967
   + 0.0027296230423128 x1968 + 1000 x2576 - x2656 + x2685 <= 1000
 c_u_x2693_: - 6.32979e-06 x598 - 3.08276e-06 x599 - 2.63667e-06 x600
   - 2.27775e-06 x601 + 0.00396814466478038 x1251
   + 0.00198118745804284 x1252 + 0.00157225651930593 x1253
   + 0.00124915059240269 x1254 + 0.00309402773753323 x1971
   + 0.00289929871908708 x1972 + 0.00284160123214008 x1973
   + 0.00274784281585119 x1974 + 1000 x2578 - x2656 + x2687 <= 1000
 c_u_x2694_: - 4.38275e-06 x602 - 2.1345e-06 x603 - 1.82563e-06 x604
   - 1.57712e-06 x605 + 0.00330191632853181 x1257
   + 0.00164855764348907 x1258 + 0.0013082838233732 x1259
   + 0.00103942549636807 x1260 + 0.00257455853315185 x1977
   + 0.00241252338071572 x1978 + 0.00236451296517909 x1979
   + 0.00228649603993206 x1980 + 1000 x2580 - x2656 + x2689 <= 1000
 c_u_x2695_: - 6.03888e-06 x606 - 2.94108e-06 x607 - 2.51549e-06 x608
   - 2.17307e-06 x609 + 0.00387588467127184 x1263
   + 0.0019351245350752 x1264 + 0.00153570130559299 x1265
   + 0.00122010764279223 x1266 + 0.00302209110137335 x1983
   + 0.00283188956352468 x1984 + 0.00277553355231026 x1985
   + 0.00268395503408682 x1986 + 1000 x2582 - x2656 + x2691 <= 1000
 c_u_x2696_: - 8.94614e-06 x610 - 4.35698e-06 x611 - 3.72651e-06 x612
   - 3.21924e-06 x613 + 0.00471748375096566 x1269
   + 0.0023553122253549 x1270 + 0.00186915931972103 x1271
   + 0.00148503850539304 x1272 + 0.00367829976220332 x1989
   + 0.00344679837856815 x1990 + 0.00337820537600958 x1991
   + 0.0032667417468519 x1992 + 1000 x2585 - x2658 + x2697 <= 1000
 c_u_x2698_: - 1.19599e-06 x614 - 5.82474e-07 x615 - 4.98188e-07 x616
   - 4.30372e-07 x617 + 0.00172486822485806 x1275
   + 8.6118011880863233e-04 x1276 + 6.8342652311715278e-04 x1277
   + 5.4297923763252679e-04 x1278 + 0.00134490815787733 x1995
   + 0.00126026358850044 x1996 + 0.00123518371609247 x1997
   + 0.00119442892342952 x1998 + 1000 x2588 - x2658 + x2699 <= 1000
 c_u_x2700_: - 4.76113e-06 x618 - 2.31878e-06 x619 - 1.98325e-06 x620
   - 1.71328e-06 x621 + 0.0034415 x1281 + 0.00171824795103908 x1282
   + 0.00136358956434845 x1283 + 0.00108336565387684 x1284
   + 0.00268339414268571 x2001 + 0.00251450919664256 x2002
   + 0.00246446921262977 x2003 + 0.00238315423860899 x2004 + 1000 x2591
   - x2658 + x2701 <= 1000
 c_u_x2702_: - 1.19028e-06 x622 - 5.79696e-07 x623 - 4.95812e-07 x624
   - 4.28319e-07 x625 + 0.00172075 x1287 + 0.000859124 x1288
   + 6.8179478217422589e-04 x1289 + 5.4168282693842164e-04 x1290
   + 0.00134169707134286 x2007 + 0.00125725459832128 x2008
   + 0.00123223460631489 x2009 + 0.0011915771193045 x2010 + 1000 x2594
   - x2658 + x2703 <= 1000
 c_u_x2704_: - 2.10106e-06 x626 - 1.02326e-06 x627 - 8.75195e-07 x628
   - 7.56058e-07 x629 + 0.0022861869325637 x1293
   + 0.00114143138926799 x1294 + 0.000905832 x1295
   + 7.1967934700114882e-04 x1296 + 0.00178257759736428 x2013
   + 0.00167038739892876 x2014 + 0.00163714585865157 x2015
   + 0.00158312835570114 x2016 + 1000 x2597 - x2658 + x2705 <= 1000
 c_u_x2706_: - 3.08979e-06 x630 - 1.5048e-06 x631 - 1.28705e-06 x632
   - 1.11185e-06 x633 + 0.00277240888319616 x1299
   + 0.00138418887716101 x1300 + 0.00109848261820568 x1301
   + 8.7273940125331788e-04 x1302 + 0.00216169285876255 x2019
   + 0.00202564225926001 x2020 + 0.00198533097051852 x2021
   + 0.00191982512631359 x2022 + 1000 x2599 - x2660 + x2697 <= 1000
 c_u_x2707_: - 9.67818e-07 x634 - 4.7135e-07 x635 - 4.03144e-07 x636
   - 3.48266e-07 x637 + 0.00155163472445192 x1305
   + 7.746893108086946e-04 x1306 + 0.000614788 x1307
   + 4.8844626367697817e-04 x1308 + 0.00120983514501977 x2025
   + 0.00113369167435419 x2026 + 0.00111113064600883 x2027
   + 0.00107446897494763 x2028 + 1000 x2601 - x2660 + x2699 <= 1000
 c_u_x2708_: - 2.32733e-06 x638 - 1.13346e-06 x639 - 9.69446e-07 x640
   - 8.3748e-07 x641 + 0.00240614229940791 x1311 + 0.0012013218641355 x1312
   + 9.5336063480720669e-04 x1313 + 7.5744065114040447e-04 x1314
   + 0.00187610877216648 x2031 + 0.00175803199629586 x2032
   + 0.00172304628492679 x2033 + 0.00166619450395204 x2034 + 1000 x2603
   - x2660 + x2701 <= 1000
 c_u_x2709_: - 7.33944e-07 x642 - 3.57448e-07 x643 - 3.05724e-07 x644
   - 2.64107e-07 x645 + 0.00135121435799432 x1317
   + 6.7462483486194018e-04 x1318 + 5.3537755369458667e-04 x1319
   + 0.000425355 x1320 + 0.00105356408502283 x2037
   + 9.8725585589552202e-04 x2038 + 0.000967609 x2039
   + 9.3568278879650225e-04 x2040 + 1000 x2605 - x2660 + x2703 <= 1000
 c_u_x2710_: - 4.75353e-08 x646 - 2.31508e-08 x647 - 1.98008e-08 x648
   - 1.71054e-08 x649 + 0.000343875 x1323 + 1.7168749999999999e-04 x1324
   + 0.00013625 x1325 + 0.00010825 x1326 + 0.000268125 x2043
   + 0.00025125 x2044 + 0.00024625 x2045 + 0.000238125 x2046 + 1000 x2607
   - x2660 + x2705 <= 1000
 c_u_x2711_: - 4.80752e-13 x650 - 2.34137e-13 x651 - 2.00257e-13 x652
   - 1.72997e-13 x653 + 1.09359e-06 x1329 + 5.45998e-07 x1330
   + 4.333e-07 x1331 + 3.44255e-07 x1332 + 8.52687e-07 x2049
   + 7.99022e-07 x2050 + 7.83121e-07 x2051 + 7.57282e-07 x2052 + 1000 x2609
   - x2667 + x2669 <= 1000
 c_u_x2712_: - 1.24995e-12 x654 - 6.08757e-13 x655 - 5.20668e-13 x656
   - 4.49792e-13 x657 + 1.76335e-06 x1335 + 8.80395e-07 x1336
   + 6.98676e-07 x1337 + 5.55095e-07 x1338 + 1.37492e-06 x2055
   + 1.28838e-06 x2056 + 1.26274e-06 x2057 + 1.22108e-06 x2058 + 1000 x2611
   - x2667 + x2671 <= 1000
 c_u_x2713_: - 3.84601e-13 x658 - 1.8731e-13 x659 - 1.60205e-13 x660
   - 1.38397e-13 x661 + 9.78133e-07 x1341 + 4.88356e-07 x1342
   + 3.87556e-07 x1343 + 3.07911e-07 x1344 + 7.62667e-07 x2061
   + 7.14667e-07 x2062 + 7.00444e-07 x2063 + 6.77333e-07 x2064 + 1000 x2613
   - x2669 + x2671 <= 1000
 c_u_x2714_: - 9.61503e-13 x662 - 4.68275e-13 x663 - 4.00514e-13 x664
   - 3.45994e-13 x665 + 1.54656e-06 x1347 + 7.72158e-07 x1348
   + 6.12779e-07 x1349 + 4.8685e-07 x1350 + 1.20588e-06 x2067
   + 1.12999e-06 x2068 + 1.1075e-06 x2069 + 1.07096e-06 x2070 + 1000 x2615
   - x2676 + x2678 <= 1000
 c_u_x2715_: - 1.24995e-12 x666 - 6.08757e-13 x667 - 5.20668e-13 x668
   - 4.49792e-13 x669 + 1.76335e-06 x1353 + 8.80395e-07 x1354
   + 6.98676e-07 x1355 + 5.55095e-07 x1356 + 1.37492e-06 x2073
   + 1.28838e-06 x2074 + 1.26274e-06 x2075 + 1.22108e-06 x2076 + 1000 x2617
   - x2676 + x2680 <= 1000
 c_u_x2716_: - 8.65353e-13 x670 - 4.21447e-13 x671 - 3.60462e-13 x672
   - 3.11394e-13 x673 + 1.4672e-06 x1359 + 7.32533e-07 x1360
   + 5.81333e-07 x1361 + 4.61867e-07 x1362 + 1.144e-06 x2079
   + 1.072e-06 x2080 + 1.05067e-06 x2081 + 1.016e-06 x2082 + 1000 x2619
   - x2678 + x2680 <= 1000
 c_u_x2717_: - 5.62817e-07 x674 - 2.74105e-07 x675 - 2.34441e-07 x676
   - 2.02528e-07 x677 + 0.00118324984048171 x1365
   + 5.9076468771415236e-04 x1366 + 4.6882672705382322e-04 x1367
   + 3.7248068406294573e-04 x1368 + 9.2259938489032173e-04 x2085
   + 8.6453368933778413e-04 x2086 + 0.000847329 x2087
   + 8.1937148168581022e-04 x2088 + 1000 x2621 - x2685 + x2687 <= 1000
 c_u_x2718_: - 3.11071e-06 x678 - 1.51499e-06 x679 - 1.29576e-06 x680
   - 1.11938e-06 x681 + 0.00278177659464235 x1371
   + 0.00138886592247956 x1372 + 0.00110219428868054 x1373
   + 8.7568830641958438e-04 x1374 + 0.0021689970176328 x2091
   + 0.00203248671582375 x2092 + 0.00199203921899143 x2093
   + 0.00192631203663892 x2094 + 1000 x2623 - x2685 + x2689 <= 1000
 c_u_x2719_: - 7.16832e-07 x682 - 3.49114e-07 x683 - 2.98596e-07 x684
   - 2.57949e-07 x685 + 0.00133536895112362 x1377
   + 6.6671365116986313e-04 x1378 + 5.290992936113221e-04 x1379
   + 0.000420367 x1380 + 0.00104120916036356 x2097
   + 9.7567851390711685e-04 x2098 + 0.000956262 x2099
   + 9.2471023332987953e-04 x2100 + 1000 x2625 - x2685 + x2691 <= 1000
 c_u_x2720_: - 1.31578e-06 x686 - 6.40814e-07 x687 - 5.48086e-07 x688
   - 4.73477e-07 x689 + 0.00180918778254221 x1383
   + 9.0327859662730863e-04 x1384 + 7.1683558086914183e-04 x1385
   + 5.6952258076392365e-04 x1386 + 0.00141065350547184 x2103
   + 0.00132187111701557 x2104 + 0.00129556522413964 x2105
   + 0.00125281814821625 x2106 + 1000 x2627 - x2687 + x2689 <= 1000
 c_u_x2721_: - 2.47373e-06 x690 - 1.20477e-06 x691 - 1.03043e-06 x692
   - 8.90165e-07 x693 + 0.00248067144400967 x1389
   + 0.00123853225312515 x1390 + 9.828905394294932e-04 x1391
   + 0.000780902 x1392 + 0.00193422037346446 x2109
   + 0.00181248622408558 x2110 + 0.00177641684649184 x2111
   + 0.001717804107902 x2112 + 1000 x2629 - x2687 + x2691 <= 1000
 c_u_x2722_: - 5.86585e-06 x694 - 2.85681e-06 x695 - 2.44342e-06 x696
   - 2.11081e-06 x697 + 0.00381995444058237 x1395 + 0.0019072 x1396
   + 0.00151354065439287 x1397 + 0.0012025011070681 x1398
   + 0.00297848137951625 x2115 + 0.00279102450947676 x2116
   + 0.00273548173316877 x2117 + 0.00264522472166827 x2118 + 1000 x2631
   - x2689 + x2691 <= 1000
 c_u_x2723_: - 5.84874e-06 x698 - 2.84847e-06 x699 - 2.43629e-06 x700
   - 2.10465e-06 x701 + 0.00381437831402445 x1401
   + 0.00190441607208745 x1402 + 0.00151133128400096 x1403
   + 0.00120074577242645 x1404 + 0.00297413358181841 x2121
   + 0.00278695034939627 x2122 + 0.00273148865090082 x2123
   + 0.00264136339084572 x2124 + 1000 x2633 - x2697 + x2699 <= 1000
 c_u_x2724_: - 4.02529e-06 x702 - 1.96041e-06 x703 - 1.67673e-06 x704
   - 1.44848e-06 x705 + 0.00316439746604705 x1407
   + 0.00157989818960946 x1408 + 0.00125379616066568 x1409
   + 9.9613529829034771e-04 x1410 + 0.00246733281158521 x2127
   + 0.0023120461311358 x2128 + 0.00226603526285449 x2129
   + 0.00219126760189736 x2130 + 1000 x2635 - x2697 + x2701 <= 1000
 c_u_x2725_: - 5.3867e-06 x706 - 2.62345e-06 x707 - 2.24382e-06 x708
   - 1.93838e-06 x709 + 0.00366061357843532 x1413
   + 0.00182764549254122 x1414 + 0.00145040668865667 x1415
   + 0.00115234146089603 x1416 + 0.00285424068547574 x2133
   + 0.00267460315981642 x2134 + 0.00262137722628774 x2135
   + 0.00253488508430363 x2136 + 1000 x2637 - x2697 + x2703 <= 1000
 c_u_x2726_: - 2.38057e-06 x710 - 1.15939e-06 x711 - 9.91623e-07 x712
   - 8.56638e-07 x713 + 0.00243350791708184 x1419
   + 0.00121498477793963 x1420 + 9.6420342770600024e-04 x1421
   + 7.6605520036091392e-04 x1422 + 0.00189744619488933 x2139
   + 0.00177802650430189 x2140 + 0.00174264289227598 x2141
   + 0.00168514452273388 x2142 + 1000 x2639 - x2697 + x2705 <= 1000
 c_u_x2727_: - 1.2188e-06 x714 - 5.93586e-07 x715 - 5.07692e-07 x716
   - 4.38582e-07 x717 + 0.00174124392335623 x1425 + 0.000869356 x1426
   + 6.8991489511388299e-04 x1427 + 5.4813421942075471e-04 x1428
   + 0.00135767655965071 x2145 + 0.0012722283845678 x2146
   + 0.00124691040676546 x2147 + 0.00120576869283665 x2148 + 1000 x2641
   - x2699 + x2701 <= 1000
 c_u_x2728_: - 2.48134e-06 x718 - 1.20847e-06 x719 - 1.0336e-06 x720
   - 8.92902e-07 x721 + 0.00248448200146932 x1431
   + 0.00124043476154784 x1432 + 9.8440035681626997e-04 x1433
   + 7.8210156789255958e-04 x1434 + 0.00193719152786321 x2151
   + 0.00181527038275294 x2152 + 0.00177914559901656 x2153
   + 0.00172044282544495 x2154 + 1000 x2643 - x2699 + x2703 <= 1000
 c_u_x2729_: - 1.29296e-06 x722 - 6.29701e-07 x723 - 5.38581e-07 x724
   - 4.65267e-07 x725 + 0.00179343258167125 x1437
   + 8.9541245035458386e-04 x1438 + 0.000710593 x1439 + 0.000564563 x1440
   + 0.00139836891591597 x2157 + 0.00131035968344573 x2158
   + 0.00128428287382492 x2159 + 0.0012419080581911 x2160 + 1000 x2645
   - x2699 + x2705 <= 1000
 c_u_x2730_: - 5.57113e-06 x726 - 2.71327e-06 x727 - 2.32065e-06 x728
   - 2.00475e-06 x729 + 0.00372275460260947 x1443
   + 0.00185867082758419 x1444 + 0.00147502817769695 x1445
   + 0.00117190312099593 x1446 + 0.00290269306528437 x2163
   + 0.0027200060891476 x2164 + 0.0026658766147367 x2165
   + 0.00257791621881899 x2166 + 1000 x2647 - x2701 + x2703 <= 1000
 c_u_x2731_: - 2.30641e-06 x730 - 1.12328e-06 x731 - 9.60734e-07 x732
   - 8.29954e-07 x733 + 0.00239530598423771 x1449
   + 0.00119591158464213 x1450 + 0.000949067 x1451
   + 7.5402943742270421e-04 x1452 + 0.00186765951878949 x2169
   + 0.00175011451411043 x2170 + 0.0017152863645759 x2171
   + 0.00165869062158228 x2172 + 1000 x2649 - x2701 + x2705 <= 1000
 c_u_x2732_: - 9.22184e-07 x734 - 4.49125e-07 x735 - 3.84135e-07 x736
   - 3.31845e-07 x737 + 0.00151461226164487 x1455 + 0.000756205 x1456
   + 0.000600119 x1457 + 4.767917915610544e-04 x1458
   + 0.00118096812112986 x2175 + 0.00110664145616365 x2176
   + 0.0010846187406181 x2177 + 0.00104883182785659 x2178 + 1000 x2651
   - x2703 + x2705 <= 1000
 c_u_x2733_: 1.53841e-12 x257 + 7.4924e-13 x258 + 6.40822e-13 x259
   + 5.5359e-13 x260 - 1.95627e-06 x741 - 9.76711e-07 x742
   - 7.75111e-07 x743 - 6.15822e-07 x744 - 1.52533e-06 x1461
   - 1.42933e-06 x1462 - 1.40089e-06 x1463 - 1.35467e-06 x1464 + x2512
   - x2513 + 1000 x2514 <= 1000
 c_u_x2734_: 1.01919e-11 x261 + 4.96371e-12 x262 + 4.24544e-12 x263
   + 3.66753e-12 x264 - 5.03525e-06 x747 - 2.51396e-06 x748
   - 1.99506e-06 x749 - 1.58507e-06 x750 - 3.92607e-06 x1467
   - 3.67897e-06 x1468 - 3.60576e-06 x1469 - 3.48679e-06 x1470 + x2512
   - x2516 + 1000 x2517 <= 1000
 c_u_x2735_: 1.39418e-11 x265 + 6.78998e-12 x266 + 5.80745e-12 x267
   + 5.01691e-12 x268 - 5.88914e-06 x753 - 2.94029e-06 x754
   - 2.33339e-06 x755 - 1.85387e-06 x756 - 4.59186e-06 x1473
   - 4.30286e-06 x1474 - 4.21723e-06 x1475 - 4.07809e-06 x1476 + x2512
   - x2519 + 1000 x2520 <= 1000
 c_u_x2736_: 2.12492e-11 x269 + 1.03489e-11 x270 + 8.85135e-12 x271
   + 7.64646e-12 x272 - 7.2705e-06 x759 - 3.62996e-06 x760
   - 2.88071e-06 x761 - 2.28871e-06 x762 - 5.66893e-06 x1479
   - 5.31214e-06 x1480 - 5.20643e-06 x1481 - 5.03464e-06 x1482 + x2512
   - x2522 + 1000 x2523 <= 1000
 c_u_x2737_: 1.11534e-11 x273 + 5.43199e-12 x274 + 4.64596e-12 x275
   + 4.01353e-12 x276 - 5.26741e-06 x765 - 2.62988e-06 x766
   - 2.08705e-06 x767 - 1.65815e-06 x768 - 4.10709e-06 x1485
   - 3.8486e-06 x1486 - 3.77201e-06 x1487 - 3.64755e-06 x1488 - x2513
   + x2525 + 1000 x2526 <= 1000
 c_u_x2738_: 1.01919e-11 x277 + 4.96371e-12 x278 + 4.24544e-12 x279
   + 3.66753e-12 x280 - 5.03525e-06 x771 - 2.51396e-06 x772
   - 1.99506e-06 x773 - 1.58507e-06 x774 - 3.92607e-06 x1491
   - 3.67897e-06 x1492 - 3.60576e-06 x1493 - 3.48679e-06 x1494 - x2516
   + x2525 + 1000 x2528 <= 1000
 c_u_x2739_: 8.17278e-12 x281 + 3.98034e-12 x282 + 3.40437e-12 x283
   + 2.94095e-12 x284 - 4.50897e-06 x777 - 2.25121e-06 x778
   - 1.78654e-06 x779 - 1.4194e-06 x780 - 3.51572e-06 x1497
   - 3.29445e-06 x1498 - 3.22889e-06 x1499 - 3.12235e-06 x1500 - x2519
   + x2525 + 1000 x2530 <= 1000
 c_u_x2740_: 1.16342e-11 x285 + 5.66612e-12 x286 + 4.84621e-12 x287
   + 4.18652e-12 x288 - 5.37973e-06 x783 - 2.68596e-06 x784
   - 2.13156e-06 x785 - 1.69351e-06 x786 - 4.19467e-06 x1503
   - 3.93067e-06 x1504 - 3.85244e-06 x1505 - 3.72533e-06 x1506 - x2522
   + x2525 + 1000 x2532 <= 1000
 c_u_x2741_: 4.80752e-13 x289 + 2.34137e-13 x290 + 2.00257e-13 x291
   + 1.72997e-13 x292 - 1.09359e-06 x789 - 5.45998e-07 x790
   - 4.333e-07 x791 - 3.44255e-07 x792 - 8.52687e-07 x1509
   - 7.99022e-07 x1510 - 7.83121e-07 x1511 - 7.57282e-07 x1512 + x2513
   - x2534 + 1000 x2535 <= 1000
 c_u_x2742_: 1.92301e-12 x293 + 9.36549e-13 x294 + 8.01027e-13 x295
   + 6.91987e-13 x296 - 2.18717e-06 x795 - 1.092e-06 x796
   - 8.66601e-07 x797 - 6.8851e-07 x798 - 1.70537e-06 x1515
   - 1.59804e-06 x1516 - 1.56624e-06 x1517 - 1.51456e-06 x1518 + x2513
   - x2537 + 1000 x2538 <= 1000
 c_u_x2743_: 3.07681e-12 x297 + 1.49848e-12 x298 + 1.28164e-12 x299
   + 1.10718e-12 x300 - 2.76658e-06 x801 - 1.38128e-06 x802
   - 1.09617e-06 x803 - 8.70904e-07 x804 - 2.15715e-06 x1521
   - 2.02138e-06 x1522 - 1.98116e-06 x1523 - 1.91579e-06 x1524 + x2513
   - x2540 + 1000 x2541 <= 1000
 c_u_x2744_: 2.40376e-12 x301 + 1.17069e-12 x302 + 1.00128e-12 x303
   + 8.64984e-13 x304 - 2.44533e-06 x807 - 1.22089e-06 x808
   - 9.68889e-07 x809 - 7.69778e-07 x810 - 1.90667e-06 x1527
   - 1.78667e-06 x1528 - 1.75111e-06 x1529 - 1.69333e-06 x1530 + x2516
   - x2534 + 1000 x2543 <= 1000
 c_u_x2745_: 9.61503e-13 x305 + 4.68275e-13 x306 + 4.00514e-13 x307
   + 3.45994e-13 x308 - 1.54656e-06 x813 - 7.72158e-07 x814
   - 6.12779e-07 x815 - 4.8685e-07 x816 - 1.20588e-06 x1533
   - 1.12999e-06 x1534 - 1.1075e-06 x1535 - 1.07096e-06 x1536 + x2516
   - x2537 + 1000 x2545 <= 1000
 c_u_x2746_: 1.92301e-13 x309 - 6.91645e-07 x819 - 3.4532e-07 x820
   - 2.74043e-07 x821 - 2.17726e-07 x822 - 5.39287e-07 x1539
   - 5.05346e-07 x1540 - 4.95289e-07 x1541 - 4.78947e-07 x1542 + x2516
   - x2540 + 1000 x2547 <= 1000
 c_u_x2747_: 9.61503e-13 x313 + 4.68275e-13 x314 + 4.00514e-13 x315
   + 3.45994e-13 x316 - 1.54656e-06 x825 - 7.72158e-07 x826
   - 6.12779e-07 x827 - 4.8685e-07 x828 - 1.20588e-06 x1545
   - 1.12999e-06 x1546 - 1.1075e-06 x1547 - 1.07096e-06 x1548 + x2519
   - x2549 + 1000 x2550 <= 1000
 c_u_x2748_: 3.07681e-12 x317 + 1.49848e-12 x318 + 1.28164e-12 x319
   + 1.10718e-12 x320 - 2.76658e-06 x831 - 1.38128e-06 x832
   - 1.09617e-06 x833 - 8.70904e-07 x834 - 2.15715e-06 x1551
   - 2.02138e-06 x1552 - 1.98116e-06 x1553 - 1.91579e-06 x1554 + x2519
   - x2552 + 1000 x2553 <= 1000
 c_u_x2749_: 1.63456e-12 x321 + 7.96067e-13 x322 + 6.80873e-13 x323
   + 5.88189e-13 x324 - 2.01647e-06 x837 - 1.00677e-06 x838
   - 7.98966e-07 x839 - 6.34775e-07 x840 - 1.57228e-06 x1557
   - 1.47332e-06 x1558 - 1.444e-06 x1559 - 1.39636e-06 x1560 + x2519
   - x2555 + 1000 x2556 <= 1000
 c_u_x2750_: 1.92301e-13 x325 - 6.91645e-07 x843 - 3.4532e-07 x844
   - 2.74043e-07 x845 - 2.17726e-07 x846 - 5.39287e-07 x1563
   - 5.05346e-07 x1564 - 4.95289e-07 x1565 - 4.78947e-07 x1566 + x2522
   - x2549 + 1000 x2558 <= 1000
 c_u_x2751_: 7.69203e-13 x329 + 3.7462e-13 x330 + 3.20411e-13 x331
   + 2.76795e-13 x332 - 1.38329e-06 x849 - 6.90639e-07 x850
   - 5.48086e-07 x851 - 4.35452e-07 x852 - 1.07857e-06 x1569
   - 1.01069e-06 x1570 - 9.90578e-07 x1571 - 9.57894e-07 x1572 + x2522
   - x2552 + 1000 x2560 <= 1000
 c_u_x2752_: 4.80752e-13 x333 + 2.34137e-13 x334 + 2.00257e-13 x335
   + 1.72997e-13 x336 - 1.09359e-06 x855 - 5.45998e-07 x856
   - 4.333e-07 x857 - 3.44255e-07 x858 - 8.52687e-07 x1575
   - 7.99022e-07 x1576 - 7.83121e-07 x1577 - 7.57282e-07 x1578 + x2522
   - x2555 + 1000 x2562 <= 1000
 c_u_x2753_: 3.51761e-07 x337 + 1.71316e-07 x338 + 1.46526e-07 x339
   + 1.2658e-07 x340 - 9.3544113423828029e-04 x861
   - 4.6704049359370335e-04 x862 - 0.00037064 x863
   - 2.9447183651412238e-04 x864 - 7.2937885603093823e-04 x1581
   - 6.834738930639561e-04 x1582 - 6.6987242255522059e-04 x1583
   - 0.00064777 x1584 + x2513 - x2564 + 1000 x2565 <= 1000
 c_u_x2754_: 1.19599e-06 x341 + 5.82474e-07 x342 + 4.98188e-07 x343
   + 4.30372e-07 x344 - 0.00172486822485806 x867
   - 8.6118011880863233e-04 x868 - 6.8342652311715278e-04 x869
   - 5.4297923763252679e-04 x870 - 0.00134490815787733 x1587
   - 0.00126026358850044 x1588 - 0.00123518371609247 x1589
   - 0.00119442892342952 x1590 + x2513 - x2567 + 1000 x2568 <= 1000
 c_u_x2755_: 4.95317e-06 x345 + 2.41231e-06 x346 + 2.06324e-06 x347
   + 1.78238e-06 x348 - 0.0035102210226886 x873 - 0.00175255855131327 x874
   - 0.00139081821691406 x875 - 0.00110499869343814 x876
   - 0.002736977133285 x1593 - 0.00256471983119014 x1594
   - 0.00251368063056944 x1595 - 0.00243074192956081 x1596 + x2513 - x2570
   + 1000 x2571 <= 1000
 c_u_x2756_: 1.09521e-06 x349 + 5.33394e-07 x350 + 4.5621e-07 x351
   + 3.94108e-07 x352 - 0.0016506 x879 - 0.0008241 x880 - 0.000654 x881
   - 0.0005196 x882 - 0.001287 x1599 - 0.001206 x1600 - 0.001182 x1601
   - 0.001143 x1602 + x2513 - x2573 + 1000 x2574 <= 1000
 c_u_x2757_: 6.24613e-06 x353 + 3.04201e-06 x354 + 2.60182e-06 x355
   + 2.24765e-06 x356 - 0.00394183359023754 x885 - 0.00196805104914259 x886
   - 0.00156183155701887 x887 - 0.00124086800768655 x888
   - 0.00307351255945457 x1605 - 0.00288007470606233 x1606
   - 0.0028227597865387 x1607 - 0.0027296230423128 x1608 + x2516 - x2564
   + 1000 x2576 <= 1000
 c_u_x2758_: 6.32979e-06 x357 + 3.08276e-06 x358 + 2.63667e-06 x359
   + 2.27775e-06 x360 - 0.00396814466478038 x891 - 0.00198118745804284 x892
   - 0.00157225651930593 x893 - 0.00124915059240269 x894
   - 0.00309402773753323 x1611 - 0.00289929871908708 x1612
   - 0.00284160123214008 x1613 - 0.00274784281585119 x1614 + x2516 - x2567
   + 1000 x2578 <= 1000
 c_u_x2759_: 4.38275e-06 x361 + 2.1345e-06 x362 + 1.82563e-06 x363
   + 1.57712e-06 x364 - 0.00330191632853181 x897 - 0.00164855764348907 x898
   - 0.0013082838233732 x899 - 0.00103942549636807 x900
   - 0.00257455853315185 x1617 - 0.00241252338071572 x1618
   - 0.00236451296517909 x1619 - 0.00228649603993206 x1620 + x2516 - x2570
   + 1000 x2580 <= 1000
 c_u_x2760_: 6.03888e-06 x365 + 2.94108e-06 x366 + 2.51549e-06 x367
   + 2.17307e-06 x368 - 0.00387588467127184 x903 - 0.0019351245350752 x904
   - 0.00153570130559299 x905 - 0.00122010764279223 x906
   - 0.00302209110137335 x1623 - 0.00283188956352468 x1624
   - 0.00277553355231026 x1625 - 0.00268395503408682 x1626 + x2516 - x2573
   + 1000 x2582 <= 1000
 c_u_x2761_: 8.94614e-06 x369 + 4.35698e-06 x370 + 3.72651e-06 x371
   + 3.21924e-06 x372 - 0.00471748375096566 x909 - 0.0023553122253549 x910
   - 0.00186915931972103 x911 - 0.00148503850539304 x912
   - 0.00367829976220332 x1629 - 0.00344679837856815 x1630
   - 0.00337820537600958 x1631 - 0.0032667417468519 x1632 + x2519 - x2584
   + 1000 x2585 <= 1000
 c_u_x2762_: 1.19599e-06 x373 + 5.82474e-07 x374 + 4.98188e-07 x375
   + 4.30372e-07 x376 - 0.00172486822485806 x915
   - 8.6118011880863233e-04 x916 - 6.8342652311715278e-04 x917
   - 5.4297923763252679e-04 x918 - 0.00134490815787733 x1635
   - 0.00126026358850044 x1636 - 0.00123518371609247 x1637
   - 0.00119442892342952 x1638 + x2519 - x2587 + 1000 x2588 <= 1000
 c_u_x2763_: 4.76113e-06 x377 + 2.31878e-06 x378 + 1.98325e-06 x379
   + 1.71328e-06 x380 - 0.0034415 x921 - 0.00171824795103908 x922
   - 0.00136358956434845 x923 - 0.00108336565387684 x924
   - 0.00268339414268571 x1641 - 0.00251450919664256 x1642
   - 0.00246446921262977 x1643 - 0.00238315423860899 x1644 + x2519 - x2590
   + 1000 x2591 <= 1000
 c_u_x2764_: 1.19028e-06 x381 + 5.79696e-07 x382 + 4.95812e-07 x383
   + 4.28319e-07 x384 - 0.00172075 x927 - 0.000859124 x928
   - 6.8179478217422589e-04 x929 - 5.4168282693842164e-04 x930
   - 0.00134169707134286 x1647 - 0.00125725459832128 x1648
   - 0.00123223460631489 x1649 - 0.0011915771193045 x1650 + x2519 - x2593
   + 1000 x2594 <= 1000
 c_u_x2765_: 2.10106e-06 x385 + 1.02326e-06 x386 + 8.75195e-07 x387
   + 7.56058e-07 x388 - 0.0022861869325637 x933 - 0.00114143138926799 x934
   - 0.000905832 x935 - 7.1967934700114882e-04 x936
   - 0.00178257759736428 x1653 - 0.00167038739892876 x1654
   - 0.00163714585865157 x1655 - 0.00158312835570114 x1656 + x2519 - x2596
   + 1000 x2597 <= 1000
 c_u_x2766_: 3.08979e-06 x389 + 1.5048e-06 x390 + 1.28705e-06 x391
   + 1.11185e-06 x392 - 0.00277240888319616 x939 - 0.00138418887716101 x940
   - 0.00109848261820568 x941 - 8.7273940125331788e-04 x942
   - 0.00216169285876255 x1659 - 0.00202564225926001 x1660
   - 0.00198533097051852 x1661 - 0.00191982512631359 x1662 + x2522 - x2584
   + 1000 x2599 <= 1000
 c_u_x2767_: 9.67818e-07 x393 + 4.7135e-07 x394 + 4.03144e-07 x395
   + 3.48266e-07 x396 - 0.00155163472445192 x945
   - 7.746893108086946e-04 x946 - 0.000614788 x947
   - 4.8844626367697817e-04 x948 - 0.00120983514501977 x1665
   - 0.00113369167435419 x1666 - 0.00111113064600883 x1667
   - 0.00107446897494763 x1668 + x2522 - x2587 + 1000 x2601 <= 1000
 c_u_x2768_: 2.32733e-06 x397 + 1.13346e-06 x398 + 9.69446e-07 x399
   + 8.3748e-07 x400 - 0.00240614229940791 x951 - 0.0012013218641355 x952
   - 9.5336063480720669e-04 x953 - 7.5744065114040447e-04 x954
   - 0.00187610877216648 x1671 - 0.00175803199629586 x1672
   - 0.00172304628492679 x1673 - 0.00166619450395204 x1674 + x2522 - x2590
   + 1000 x2603 <= 1000
 c_u_x2769_: 7.33944e-07 x401 + 3.57448e-07 x402 + 3.05724e-07 x403
   + 2.64107e-07 x404 - 0.00135121435799432 x957
   - 6.7462483486194018e-04 x958 - 5.3537755369458667e-04 x959
   - 0.000425355 x960 - 0.00105356408502283 x1677
   - 9.8725585589552202e-04 x1678 - 0.000967609 x1679
   - 9.3568278879650225e-04 x1680 + x2522 - x2593 + 1000 x2605 <= 1000
 c_u_x2770_: 4.75353e-08 x405 + 2.31508e-08 x406 + 1.98008e-08 x407
   + 1.71054e-08 x408 - 0.000343875 x963 - 1.7168749999999999e-04 x964
   - 0.00013625 x965 - 0.00010825 x966 - 0.000268125 x1683
   - 0.00025125 x1684 - 0.00024625 x1685 - 0.000238125 x1686 + x2522
   - x2596 + 1000 x2607 <= 1000
 c_u_x2771_: 4.80752e-13 x409 + 2.34137e-13 x410 + 2.00257e-13 x411
   + 1.72997e-13 x412 - 1.09359e-06 x969 - 5.45998e-07 x970
   - 4.333e-07 x971 - 3.44255e-07 x972 - 8.52687e-07 x1689
   - 7.99022e-07 x1690 - 7.83121e-07 x1691 - 7.57282e-07 x1692 + x2534
   - x2537 + 1000 x2609 <= 1000
 c_u_x2772_: 1.24995e-12 x413 + 6.08757e-13 x414 + 5.20668e-13 x415
   + 4.49792e-13 x416 - 1.76335e-06 x975 - 8.80395e-07 x976
   - 6.98676e-07 x977 - 5.55095e-07 x978 - 1.37492e-06 x1695
   - 1.28838e-06 x1696 - 1.26274e-06 x1697 - 1.22108e-06 x1698 + x2534
   - x2540 + 1000 x2611 <= 1000
 c_u_x2773_: 3.84601e-13 x417 + 1.8731e-13 x418 + 1.60205e-13 x419
   + 1.38397e-13 x420 - 9.78133e-07 x981 - 4.88356e-07 x982
   - 3.87556e-07 x983 - 3.07911e-07 x984 - 7.62667e-07 x1701
   - 7.14667e-07 x1702 - 7.00444e-07 x1703 - 6.77333e-07 x1704 + x2537
   - x2540 + 1000 x2613 <= 1000
 c_u_x2774_: 9.61503e-13 x421 + 4.68275e-13 x422 + 4.00514e-13 x423
   + 3.45994e-13 x424 - 1.54656e-06 x987 - 7.72158e-07 x988
   - 6.12779e-07 x989 - 4.8685e-07 x990 - 1.20588e-06 x1707
   - 1.12999e-06 x1708 - 1.1075e-06 x1709 - 1.07096e-06 x1710 + x2549
   - x2552 + 1000 x2615 <= 1000
 c_u_x2775_: 1.24995e-12 x425 + 6.08757e-13 x426 + 5.20668e-13 x427
   + 4.49792e-13 x428 - 1.76335e-06 x993 - 8.80395e-07 x994
   - 6.98676e-07 x995 - 5.55095e-07 x996 - 1.37492e-06 x1713
   - 1.28838e-06 x1714 - 1.26274e-06 x1715 - 1.22108e-06 x1716 + x2549
   - x2555 + 1000 x2617 <= 1000
 c_u_x2776_: 8.65353e-13 x429 + 4.21447e-13 x430 + 3.60462e-13 x431
   + 3.11394e-13 x432 - 1.4672e-06 x999 - 7.32533e-07 x1000
   - 5.81333e-07 x1001 - 4.61867e-07 x1002 - 1.144e-06 x1719
   - 1.072e-06 x1720 - 1.05067e-06 x1721 - 1.016e-06 x1722 + x2552 - x2555
   + 1000 x2619 <= 1000
 c_u_x2777_: 5.62817e-07 x433 + 2.74105e-07 x434 + 2.34441e-07 x435
   + 2.02528e-07 x436 - 0.00118324984048171 x1005
   - 5.9076468771415236e-04 x1006 - 4.6882672705382322e-04 x1007
   - 3.7248068406294573e-04 x1008 - 9.2259938489032173e-04 x1725
   - 8.6453368933778413e-04 x1726 - 0.000847329 x1727
   - 8.1937148168581022e-04 x1728 + x2564 - x2567 + 1000 x2621 <= 1000
 c_u_x2778_: 3.11071e-06 x437 + 1.51499e-06 x438 + 1.29576e-06 x439
   + 1.11938e-06 x440 - 0.00278177659464235 x1011
   - 0.00138886592247956 x1012 - 0.00110219428868054 x1013
   - 8.7568830641958438e-04 x1014 - 0.0021689970176328 x1731
   - 0.00203248671582375 x1732 - 0.00199203921899143 x1733
   - 0.00192631203663892 x1734 + x2564 - x2570 + 1000 x2623 <= 1000
 c_u_x2779_: 7.16832e-07 x441 + 3.49114e-07 x442 + 2.98596e-07 x443
   + 2.57949e-07 x444 - 0.00133536895112362 x1017
   - 6.6671365116986313e-04 x1018 - 5.290992936113221e-04 x1019
   - 0.000420367 x1020 - 0.00104120916036356 x1737
   - 9.7567851390711685e-04 x1738 - 0.000956262 x1739
   - 9.2471023332987953e-04 x1740 + x2564 - x2573 + 1000 x2625 <= 1000
 c_u_x2780_: 1.31578e-06 x445 + 6.40814e-07 x446 + 5.48086e-07 x447
   + 4.73477e-07 x448 - 0.00180918778254221 x1023
   - 9.0327859662730863e-04 x1024 - 7.1683558086914183e-04 x1025
   - 5.6952258076392365e-04 x1026 - 0.00141065350547184 x1743
   - 0.00132187111701557 x1744 - 0.00129556522413964 x1745
   - 0.00125281814821625 x1746 + x2567 - x2570 + 1000 x2627 <= 1000
 c_u_x2781_: 2.47373e-06 x449 + 1.20477e-06 x450 + 1.03043e-06 x451
   + 8.90165e-07 x452 - 0.00248067144400967 x1029
   - 0.00123853225312515 x1030 - 9.828905394294932e-04 x1031
   - 0.000780902 x1032 - 0.00193422037346446 x1749
   - 0.00181248622408558 x1750 - 0.00177641684649184 x1751
   - 0.001717804107902 x1752 + x2567 - x2573 + 1000 x2629 <= 1000
 c_u_x2782_: 5.86585e-06 x453 + 2.85681e-06 x454 + 2.44342e-06 x455
   + 2.11081e-06 x456 - 0.00381995444058237 x1035 - 0.0019072 x1036
   - 0.00151354065439287 x1037 - 0.0012025011070681 x1038
   - 0.00297848137951625 x1755 - 0.00279102450947676 x1756
   - 0.00273548173316877 x1757 - 0.00264522472166827 x1758 + x2570 - x2573
   + 1000 x2631 <= 1000
 c_u_x2783_: 5.84874e-06 x457 + 2.84847e-06 x458 + 2.43629e-06 x459
   + 2.10465e-06 x460 - 0.00381437831402445 x1041
   - 0.00190441607208745 x1042 - 0.00151133128400096 x1043
   - 0.00120074577242645 x1044 - 0.00297413358181841 x1761
   - 0.00278695034939627 x1762 - 0.00273148865090082 x1763
   - 0.00264136339084572 x1764 + x2584 - x2587 + 1000 x2633 <= 1000
 c_u_x2784_: 4.02529e-06 x461 + 1.96041e-06 x462 + 1.67673e-06 x463
   + 1.44848e-06 x464 - 0.00316439746604705 x1047
   - 0.00157989818960946 x1048 - 0.00125379616066568 x1049
   - 9.9613529829034771e-04 x1050 - 0.00246733281158521 x1767
   - 0.0023120461311358 x1768 - 0.00226603526285449 x1769
   - 0.00219126760189736 x1770 + x2584 - x2590 + 1000 x2635 <= 1000
 c_u_x2785_: 5.3867e-06 x465 + 2.62345e-06 x466 + 2.24382e-06 x467
   + 1.93838e-06 x468 - 0.00366061357843532 x1053
   - 0.00182764549254122 x1054 - 0.00145040668865667 x1055
   - 0.00115234146089603 x1056 - 0.00285424068547574 x1773
   - 0.00267460315981642 x1774 - 0.00262137722628774 x1775
   - 0.00253488508430363 x1776 + x2584 - x2593 + 1000 x2637 <= 1000
 c_u_x2786_: 2.38057e-06 x469 + 1.15939e-06 x470 + 9.91623e-07 x471
   + 8.56638e-07 x472 - 0.00243350791708184 x1059
   - 0.00121498477793963 x1060 - 9.6420342770600024e-04 x1061
   - 7.6605520036091392e-04 x1062 - 0.00189744619488933 x1779
   - 0.00177802650430189 x1780 - 0.00174264289227598 x1781
   - 0.00168514452273388 x1782 + x2584 - x2596 + 1000 x2639 <= 1000
 c_u_x2787_: 1.2188e-06 x473 + 5.93586e-07 x474 + 5.07692e-07 x475
   + 4.38582e-07 x476 - 0.00174124392335623 x1065 - 0.000869356 x1066
   - 6.8991489511388299e-04 x1067 - 5.4813421942075471e-04 x1068
   - 0.00135767655965071 x1785 - 0.0012722283845678 x1786
   - 0.00124691040676546 x1787 - 0.00120576869283665 x1788 + x2587 - x2590
   + 1000 x2641 <= 1000
 c_u_x2788_: 2.48134e-06 x477 + 1.20847e-06 x478 + 1.0336e-06 x479
   + 8.92902e-07 x480 - 0.00248448200146932 x1071
   - 0.00124043476154784 x1072 - 9.8440035681626997e-04 x1073
   - 7.8210156789255958e-04 x1074 - 0.00193719152786321 x1791
   - 0.00181527038275294 x1792 - 0.00177914559901656 x1793
   - 0.00172044282544495 x1794 + x2587 - x2593 + 1000 x2643 <= 1000
 c_u_x2789_: 1.29296e-06 x481 + 6.29701e-07 x482 + 5.38581e-07 x483
   + 4.65267e-07 x484 - 0.00179343258167125 x1077
   - 8.9541245035458386e-04 x1078 - 0.000710593 x1079 - 0.000564563 x1080
   - 0.00139836891591597 x1797 - 0.00131035968344573 x1798
   - 0.00128428287382492 x1799 - 0.0012419080581911 x1800 + x2587 - x2596
   + 1000 x2645 <= 1000
 c_u_x2790_: 5.57113e-06 x485 + 2.71327e-06 x486 + 2.32065e-06 x487
   + 2.00475e-06 x488 - 0.00372275460260947 x1083
   - 0.00185867082758419 x1084 - 0.00147502817769695 x1085
   - 0.00117190312099593 x1086 - 0.00290269306528437 x1803
   - 0.0027200060891476 x1804 - 0.0026658766147367 x1805
   - 0.00257791621881899 x1806 + x2590 - x2593 + 1000 x2647 <= 1000
 c_u_x2791_: 2.30641e-06 x489 + 1.12328e-06 x490 + 9.60734e-07 x491
   + 8.29954e-07 x492 - 0.00239530598423771 x1089
   - 0.00119591158464213 x1090 - 0.000949067 x1091
   - 7.5402943742270421e-04 x1092 - 0.00186765951878949 x1809
   - 0.00175011451411043 x1810 - 0.0017152863645759 x1811
   - 0.00165869062158228 x1812 + x2590 - x2596 + 1000 x2649 <= 1000
 c_u_x2792_: 9.22184e-07 x493 + 4.49125e-07 x494 + 3.84135e-07 x495
   + 3.31845e-07 x496 - 0.00151461226164487 x1095 - 0.000756205 x1096
   - 0.000600119 x1097 - 4.767917915610544e-04 x1098
   - 0.00118096812112986 x1815 - 0.00110664145616365 x1816
   - 0.0010846187406181 x1817 - 0.00104883182785659 x1818 + x2593 - x2596
   + 1000 x2651 <= 1000
 c_u_x2793_: 1.53841e-12 x498 + 7.4924e-13 x499 + 6.40822e-13 x500
   + 5.5359e-13 x501 - 1.95627e-06 x1101 - 9.76711e-07 x1102
   - 7.75111e-07 x1103 - 6.15822e-07 x1104 - 1.52533e-06 x1821
   - 1.42933e-06 x1822 - 1.40089e-06 x1823 - 1.35467e-06 x1824 + 1000 x2514
   + x2653 - x2654 <= 1000
 c_u_x2794_: 1.01919e-11 x502 + 4.96371e-12 x503 + 4.24544e-12 x504
   + 3.66753e-12 x505 - 5.03525e-06 x1107 - 2.51396e-06 x1108
   - 1.99506e-06 x1109 - 1.58507e-06 x1110 - 3.92607e-06 x1827
   - 3.67897e-06 x1828 - 3.60576e-06 x1829 - 3.48679e-06 x1830 + 1000 x2517
   + x2653 - x2656 <= 1000
 c_u_x2795_: 1.39418e-11 x506 + 6.78998e-12 x507 + 5.80745e-12 x508
   + 5.01691e-12 x509 - 5.88914e-06 x1113 - 2.94029e-06 x1114
   - 2.33339e-06 x1115 - 1.85387e-06 x1116 - 4.59186e-06 x1833
   - 4.30286e-06 x1834 - 4.21723e-06 x1835 - 4.07809e-06 x1836 + 1000 x2520
   + x2653 - x2658 <= 1000
 c_u_x2796_: 2.12492e-11 x510 + 1.03489e-11 x511 + 8.85135e-12 x512
   + 7.64646e-12 x513 - 7.2705e-06 x1119 - 3.62996e-06 x1120
   - 2.88071e-06 x1121 - 2.28871e-06 x1122 - 5.66893e-06 x1839
   - 5.31214e-06 x1840 - 5.20643e-06 x1841 - 5.03464e-06 x1842 + 1000 x2523
   + x2653 - x2660 <= 1000
 c_u_x2797_: 1.11534e-11 x514 + 5.43199e-12 x515 + 4.64596e-12 x516
   + 4.01353e-12 x517 - 5.26741e-06 x1125 - 2.62988e-06 x1126
   - 2.08705e-06 x1127 - 1.65815e-06 x1128 - 4.10709e-06 x1845
   - 3.8486e-06 x1846 - 3.77201e-06 x1847 - 3.64755e-06 x1848 + 1000 x2526
   - x2654 + x2662 <= 1000
 c_u_x2798_: 1.01919e-11 x518 + 4.96371e-12 x519 + 4.24544e-12 x520
   + 3.66753e-12 x521 - 5.03525e-06 x1131 - 2.51396e-06 x1132
   - 1.99506e-06 x1133 - 1.58507e-06 x1134 - 3.92607e-06 x1851
   - 3.67897e-06 x1852 - 3.60576e-06 x1853 - 3.48679e-06 x1854 + 1000 x2528
   - x2656 + x2662 <= 1000
 c_u_x2799_: 8.17278e-12 x522 + 3.98034e-12 x523 + 3.40437e-12 x524
   + 2.94095e-12 x525 - 4.50897e-06 x1137 - 2.25121e-06 x1138
   - 1.78654e-06 x1139 - 1.4194e-06 x1140 - 3.51572e-06 x1857
   - 3.29445e-06 x1858 - 3.22889e-06 x1859 - 3.12235e-06 x1860 + 1000 x2530
   - x2658 + x2662 <= 1000
 c_u_x2800_: 1.16342e-11 x526 + 5.66612e-12 x527 + 4.84621e-12 x528
   + 4.18652e-12 x529 - 5.37973e-06 x1143 - 2.68596e-06 x1144
   - 2.13156e-06 x1145 - 1.69351e-06 x1146 - 4.19467e-06 x1863
   - 3.93067e-06 x1864 - 3.85244e-06 x1865 - 3.72533e-06 x1866 + 1000 x2532
   - x2660 + x2662 <= 1000
 c_u_x2801_: 4.80752e-13 x530 + 2.34137e-13 x531 + 2.00257e-13 x532
   + 1.72997e-13 x533 - 1.09359e-06 x1149 - 5.45998e-07 x1150
   - 4.333e-07 x1151 - 3.44255e-07 x1152 - 8.52687e-07 x1869
   - 7.99022e-07 x1870 - 7.83121e-07 x1871 - 7.57282e-07 x1872 + 1000 x2535
   + x2654 - x2667 <= 1000
 c_u_x2802_: 1.92301e-12 x534 + 9.36549e-13 x535 + 8.01027e-13 x536
   + 6.91987e-13 x537 - 2.18717e-06 x1155 - 1.092e-06 x1156
   - 8.66601e-07 x1157 - 6.8851e-07 x1158 - 1.70537e-06 x1875
   - 1.59804e-06 x1876 - 1.56624e-06 x1877 - 1.51456e-06 x1878 + 1000 x2538
   + x2654 - x2669 <= 1000
 c_u_x2803_: 3.07681e-12 x538 + 1.49848e-12 x539 + 1.28164e-12 x540
   + 1.10718e-12 x541 - 2.76658e-06 x1161 - 1.38128e-06 x1162
   - 1.09617e-06 x1163 - 8.70904e-07 x1164 - 2.15715e-06 x1881
   - 2.02138e-06 x1882 - 1.98116e-06 x1883 - 1.91579e-06 x1884 + 1000 x2541
   + x2654 - x2671 <= 1000
 c_u_x2804_: 2.40376e-12 x542 + 1.17069e-12 x543 + 1.00128e-12 x544
   + 8.64984e-13 x545 - 2.44533e-06 x1167 - 1.22089e-06 x1168
   - 9.68889e-07 x1169 - 7.69778e-07 x1170 - 1.90667e-06 x1887
   - 1.78667e-06 x1888 - 1.75111e-06 x1889 - 1.69333e-06 x1890 + 1000 x2543
   + x2656 - x2667 <= 1000
 c_u_x2805_: 9.61503e-13 x546 + 4.68275e-13 x547 + 4.00514e-13 x548
   + 3.45994e-13 x549 - 1.54656e-06 x1173 - 7.72158e-07 x1174
   - 6.12779e-07 x1175 - 4.8685e-07 x1176 - 1.20588e-06 x1893
   - 1.12999e-06 x1894 - 1.1075e-06 x1895 - 1.07096e-06 x1896 + 1000 x2545
   + x2656 - x2669 <= 1000
 c_u_x2806_: 1.92301e-13 x550 - 6.91645e-07 x1179 - 3.4532e-07 x1180
   - 2.74043e-07 x1181 - 2.17726e-07 x1182 - 5.39287e-07 x1899
   - 5.05346e-07 x1900 - 4.95289e-07 x1901 - 4.78947e-07 x1902 + 1000 x2547
   + x2656 - x2671 <= 1000
 c_u_x2807_: 9.61503e-13 x554 + 4.68275e-13 x555 + 4.00514e-13 x556
   + 3.45994e-13 x557 - 1.54656e-06 x1185 - 7.72158e-07 x1186
   - 6.12779e-07 x1187 - 4.8685e-07 x1188 - 1.20588e-06 x1905
   - 1.12999e-06 x1906 - 1.1075e-06 x1907 - 1.07096e-06 x1908 + 1000 x2550
   + x2658 - x2676 <= 1000
 c_u_x2808_: 3.07681e-12 x558 + 1.49848e-12 x559 + 1.28164e-12 x560
   + 1.10718e-12 x561 - 2.76658e-06 x1191 - 1.38128e-06 x1192
   - 1.09617e-06 x1193 - 8.70904e-07 x1194 - 2.15715e-06 x1911
   - 2.02138e-06 x1912 - 1.98116e-06 x1913 - 1.91579e-06 x1914 + 1000 x2553
   + x2658 - x2678 <= 1000
 c_u_x2809_: 1.63456e-12 x562 + 7.96067e-13 x563 + 6.80873e-13 x564
   + 5.88189e-13 x565 - 2.01647e-06 x1197 - 1.00677e-06 x1198
   - 7.98966e-07 x1199 - 6.34775e-07 x1200 - 1.57228e-06 x1917
   - 1.47332e-06 x1918 - 1.444e-06 x1919 - 1.39636e-06 x1920 + 1000 x2556
   + x2658 - x2680 <= 1000
 c_u_x2810_: 1.92301e-13 x566 - 6.91645e-07 x1203 - 3.4532e-07 x1204
   - 2.74043e-07 x1205 - 2.17726e-07 x1206 - 5.39287e-07 x1923
   - 5.05346e-07 x1924 - 4.95289e-07 x1925 - 4.78947e-07 x1926 + 1000 x2558
   + x2660 - x2676 <= 1000
 c_u_x2811_: 7.69203e-13 x570 + 3.7462e-13 x571 + 3.20411e-13 x572
   + 2.76795e-13 x573 - 1.38329e-06 x1209 - 6.90639e-07 x1210
   - 5.48086e-07 x1211 - 4.35452e-07 x1212 - 1.07857e-06 x1929
   - 1.01069e-06 x1930 - 9.90578e-07 x1931 - 9.57894e-07 x1932 + 1000 x2560
   + x2660 - x2678 <= 1000
 c_u_x2812_: 4.80752e-13 x574 + 2.34137e-13 x575 + 2.00257e-13 x576
   + 1.72997e-13 x577 - 1.09359e-06 x1215 - 5.45998e-07 x1216
   - 4.333e-07 x1217 - 3.44255e-07 x1218 - 8.52687e-07 x1935
   - 7.99022e-07 x1936 - 7.83121e-07 x1937 - 7.57282e-07 x1938 + 1000 x2562
   + x2660 - x2680 <= 1000
 c_u_x2813_: 3.51761e-07 x578 + 1.71316e-07 x579 + 1.46526e-07 x580
   + 1.2658e-07 x581 - 9.3544113423828029e-04 x1221
   - 4.6704049359370335e-04 x1222 - 0.00037064 x1223
   - 2.9447183651412238e-04 x1224 - 7.2937885603093823e-04 x1941
   - 6.834738930639561e-04 x1942 - 6.6987242255522059e-04 x1943
   - 0.00064777 x1944 + 1000 x2565 + x2654 - x2685 <= 1000
 c_u_x2814_: 1.19599e-06 x582 + 5.82474e-07 x583 + 4.98188e-07 x584
   + 4.30372e-07 x585 - 0.00172486822485806 x1227
   - 8.6118011880863233e-04 x1228 - 6.8342652311715278e-04 x1229
   - 5.4297923763252679e-04 x1230 - 0.00134490815787733 x1947
   - 0.00126026358850044 x1948 - 0.00123518371609247 x1949
   - 0.00119442892342952 x1950 + 1000 x2568 + x2654 - x2687 <= 1000
 c_u_x2815_: 4.95317e-06 x586 + 2.41231e-06 x587 + 2.06324e-06 x588
   + 1.78238e-06 x589 - 0.0035102210226886 x1233
   - 0.00175255855131327 x1234 - 0.00139081821691406 x1235
   - 0.00110499869343814 x1236 - 0.002736977133285 x1953
   - 0.00256471983119014 x1954 - 0.00251368063056944 x1955
   - 0.00243074192956081 x1956 + 1000 x2571 + x2654 - x2689 <= 1000
 c_u_x2816_: 1.09521e-06 x590 + 5.33394e-07 x591 + 4.5621e-07 x592
   + 3.94108e-07 x593 - 0.0016506 x1239 - 0.0008241 x1240 - 0.000654 x1241
   - 0.0005196 x1242 - 0.001287 x1959 - 0.001206 x1960 - 0.001182 x1961
   - 0.001143 x1962 + 1000 x2574 + x2654 - x2691 <= 1000
 c_u_x2817_: 6.24613e-06 x594 + 3.04201e-06 x595 + 2.60182e-06 x596
   + 2.24765e-06 x597 - 0.00394183359023754 x1245
   - 0.00196805104914259 x1246 - 0.00156183155701887 x1247
   - 0.00124086800768655 x1248 - 0.00307351255945457 x1965
   - 0.00288007470606233 x1966 - 0.0028227597865387 x1967
   - 0.0027296230423128 x1968 + 1000 x2576 + x2656 - x2685 <= 1000
 c_u_x2818_: 6.32979e-06 x598 + 3.08276e-06 x599 + 2.63667e-06 x600
   + 2.27775e-06 x601 - 0.00396814466478038 x1251
   - 0.00198118745804284 x1252 - 0.00157225651930593 x1253
   - 0.00124915059240269 x1254 - 0.00309402773753323 x1971
   - 0.00289929871908708 x1972 - 0.00284160123214008 x1973
   - 0.00274784281585119 x1974 + 1000 x2578 + x2656 - x2687 <= 1000
 c_u_x2819_: 4.38275e-06 x602 + 2.1345e-06 x603 + 1.82563e-06 x604
   + 1.57712e-06 x605 - 0.00330191632853181 x1257
   - 0.00164855764348907 x1258 - 0.0013082838233732 x1259
   - 0.00103942549636807 x1260 - 0.00257455853315185 x1977
   - 0.00241252338071572 x1978 - 0.00236451296517909 x1979
   - 0.00228649603993206 x1980 + 1000 x2580 + x2656 - x2689 <= 1000
 c_u_x2820_: 6.03888e-06 x606 + 2.94108e-06 x607 + 2.51549e-06 x608
   + 2.17307e-06 x609 - 0.00387588467127184 x1263
   - 0.0019351245350752 x1264 - 0.00153570130559299 x1265
   - 0.00122010764279223 x1266 - 0.00302209110137335 x1983
   - 0.00283188956352468 x1984 - 0.00277553355231026 x1985
   - 0.00268395503408682 x1986 + 1000 x2582 + x2656 - x2691 <= 1000
 c_u_x2821_: 8.94614e-06 x610 + 4.35698e-06 x611 + 3.72651e-06 x612
   + 3.21924e-06 x613 - 0.00471748375096566 x1269
   - 0.0023553122253549 x1270 - 0.00186915931972103 x1271
   - 0.00148503850539304 x1272 - 0.00367829976220332 x1989
   - 0.00344679837856815 x1990 - 0.00337820537600958 x1991
   - 0.0032667417468519 x1992 + 1000 x2585 + x2658 - x2697 <= 1000
 c_u_x2822_: 1.19599e-06 x614 + 5.82474e-07 x615 + 4.98188e-07 x616
   + 4.30372e-07 x617 - 0.00172486822485806 x1275
   - 8.6118011880863233e-04 x1276 - 6.8342652311715278e-04 x1277
   - 5.4297923763252679e-04 x1278 - 0.00134490815787733 x1995
   - 0.00126026358850044 x1996 - 0.00123518371609247 x1997
   - 0.00119442892342952 x1998 + 1000 x2588 + x2658 - x2699 <= 1000
 c_u_x2823_: 4.76113e-06 x618 + 2.31878e-06 x619 + 1.98325e-06 x620
   + 1.71328e-06 x621 - 0.0034415 x1281 - 0.00171824795103908 x1282
   - 0.00136358956434845 x1283 - 0.00108336565387684 x1284
   - 0.00268339414268571 x2001 - 0.00251450919664256 x2002
   - 0.00246446921262977 x2003 - 0.00238315423860899 x2004 + 1000 x2591
   + x2658 - x2701 <= 1000
 c_u_x2824_: 1.19028e-06 x622 + 5.79696e-07 x623 + 4.95812e-07 x624
   + 4.28319e-07 x625 - 0.00172075 x1287 - 0.000859124 x1288
   - 6.8179478217422589e-04 x1289 - 5.4168282693842164e-04 x1290
   - 0.00134169707134286 x2007 - 0.00125725459832128 x2008
   - 0.00123223460631489 x2009 - 0.0011915771193045 x2010 + 1000 x2594
   + x2658 - x2703 <= 1000
 c_u_x2825_: 2.10106e-06 x626 + 1.02326e-06 x627 + 8.75195e-07 x628
   + 7.56058e-07 x629 - 0.0022861869325637 x1293
   - 0.00114143138926799 x1294 - 0.000905832 x1295
   - 7.1967934700114882e-04 x1296 - 0.00178257759736428 x2013
   - 0.00167038739892876 x2014 - 0.00163714585865157 x2015
   - 0.00158312835570114 x2016 + 1000 x2597 + x2658 - x2705 <= 1000
 c_u_x2826_: 3.08979e-06 x630 + 1.5048e-06 x631 + 1.28705e-06 x632
   + 1.11185e-06 x633 - 0.00277240888319616 x1299
   - 0.00138418887716101 x1300 - 0.00109848261820568 x1301
   - 8.7273940125331788e-04 x1302 - 0.00216169285876255 x2019
   - 0.00202564225926001 x2020 - 0.00198533097051852 x2021
   - 0.00191982512631359 x2022 + 1000 x2599 + x2660 - x2697 <= 1000
 c_u_x2827_: 9.67818e-07 x634 + 4.7135e-07 x635 + 4.03144e-07 x636
   + 3.48266e-07 x637 - 0.00155163472445192 x1305
   - 7.746893108086946e-04 x1306 - 0.000614788 x1307
   - 4.8844626367697817e-04 x1308 - 0.00120983514501977 x2025
   - 0.00113369167435419 x2026 - 0.00111113064600883 x2027
   - 0.00107446897494763 x2028 + 1000 x2601 + x2660 - x2699 <= 1000
 c_u_x2828_: 2.32733e-06 x638 + 1.13346e-06 x639 + 9.69446e-07 x640
   + 8.3748e-07 x641 - 0.00240614229940791 x1311 - 0.0012013218641355 x1312
   - 9.5336063480720669e-04 x1313 - 7.5744065114040447e-04 x1314
   - 0.00187610877216648 x2031 - 0.00175803199629586 x2032
   - 0.00172304628492679 x2033 - 0.00166619450395204 x2034 + 1000 x2603
   + x2660 - x2701 <= 1000
 c_u_x2829_: 7.33944e-07 x642 + 3.57448e-07 x643 + 3.05724e-07 x644
   + 2.64107e-07 x645 - 0.00135121435799432 x1317
   - 6.7462483486194018e-04 x1318 - 5.3537755369458667e-04 x1319
   - 0.000425355 x1320 - 0.00105356408502283 x2037
   - 9.8725585589552202e-04 x2038 - 0.000967609 x2039
   - 9.3568278879650225e-04 x2040 + 1000 x2605 + x2660 - x2703 <= 1000
 c_u_x2830_: 4.75353e-08 x646 + 2.31508e-08 x647 + 1.98008e-08 x648
   + 1.71054e-08 x649 - 0.000343875 x1323 - 1.7168749999999999e-04 x1324
   - 0.00013625 x1325 - 0.00010825 x1326 - 0.000268125 x2043
   - 0.00025125 x2044 - 0.00024625 x2045 - 0.000238125 x2046 + 1000 x2607
   + x2660 - x2705 <= 1000
 c_u_x2831_: 4.80752e-13 x650 + 2.34137e-13 x651 + 2.00257e-13 x652
   + 1.72997e-13 x653 - 1.09359e-06 x1329 - 5.45998e-07 x1330
   - 4.333e-07 x1331 - 3.44255e-07 x1332 - 8.52687e-07 x2049
   - 7.99022e-07 x2050 - 7.83121e-07 x2051 - 7.57282e-07 x2052 + 1000 x2609
   + x2667 - x2669 <= 1000
 c_u_x2832_: 1.24995e-12 x654 + 6.08757e-13 x655 + 5.20668e-13 x656
   + 4.49792e-13 x657 - 1.76335e-06 x1335 - 8.80395e-07 x1336
   - 6.98676e-07 x1337 - 5.55095e-07 x1338 - 1.37492e-06 x2055
   - 1.28838e-06 x2056 - 1.26274e-06 x2057 - 1.22108e-06 x2058 + 1000 x2611
   + x2667 - x2671 <= 1000
 c_u_x2833_: 3.84601e-13 x658 + 1.8731e-13 x659 + 1.60205e-13 x660
   + 1.38397e-13 x661 - 9.78133e-07 x1341 - 4.88356e-07 x1342
   - 3.87556e-07 x1343 - 3.07911e-07 x1344 - 7.62667e-07 x2061
   - 7.14667e-07 x2062 - 7.00444e-07 x2063 - 6.77333e-07 x2064 + 1000 x2613
   + x2669 - x2671 <= 1000
 c_u_x2834_: 9.61503e-13 x662 + 4.68275e-13 x663 + 4.00514e-13 x664
   + 3.45994e-13 x665 - 1.54656e-06 x1347 - 7.72158e-07 x1348
   - 6.12779e-07 x1349 - 4.8685e-07 x1350 - 1.20588e-06 x2067
   - 1.12999e-06 x2068 - 1.1075e-06 x2069 - 1.07096e-06 x2070 + 1000 x2615
   + x2676 - x2678 <= 1000
 c_u_x2835_: 1.24995e-12 x666 + 6.08757e-13 x667 + 5.20668e-13 x668
   + 4.49792e-13 x669 - 1.76335e-06 x1353 - 8.80395e-07 x1354
   - 6.98676e-07 x1355 - 5.55095e-07 x1356 - 1.37492e-06 x2073
   - 1.28838e-06 x2074 - 1.26274e-06 x2075 - 1.22108e-06 x2076 + 1000 x2617
   + x2676 - x2680 <= 1000
 c_u_x2836_: 8.65353e-13 x670 + 4.21447e-13 x671 + 3.60462e-13 x672
   + 3.11394e-13 x673 - 1.4672e-06 x1359 - 7.32533e-07 x1360
   - 5.81333e-07 x1361 - 4.61867e-07 x1362 - 1.144e-06 x2079
   - 1.072e-06 x2080 - 1.05067e-06 x2081 - 1.016e-06 x2082 + 1000 x2619
   + x2678 - x2680 <= 1000
 c_u_x2837_: 5.62817e-07 x674 + 2.74105e-07 x675 + 2.34441e-07 x676
   + 2.02528e-07 x677 - 0.00118324984048171 x1365
   - 5.9076468771415236e-04 x1366 - 4.6882672705382322e-04 x1367
   - 3.7248068406294573e-04 x1368 - 9.2259938489032173e-04 x2085
   - 8.6453368933778413e-04 x2086 - 0.000847329 x2087
   - 8.1937148168581022e-04 x2088 + 1000 x2621 + x2685 - x2687 <= 1000
 c_u_x2838_: 3.11071e-06 x678 + 1.51499e-06 x679 + 1.29576e-06 x680
   + 1.11938e-06 x681 - 0.00278177659464235 x1371
   - 0.00138886592247956 x1372 - 0.00110219428868054 x1373
   - 8.7568830641958438e-04 x1374 - 0.0021689970176328 x2091
   - 0.00203248671582375 x2092 - 0.00199203921899143 x2093
   - 0.00192631203663892 x2094 + 1000 x2623 + x2685 - x2689 <= 1000
 c_u_x2839_: 7.16832e-07 x682 + 3.49114e-07 x683 + 2.98596e-07 x684
   + 2.57949e-07 x685 - 0.00133536895112362 x1377
   - 6.6671365116986313e-04 x1378 - 5.290992936113221e-04 x1379
   - 0.000420367 x1380 - 0.00104120916036356 x2097
   - 9.7567851390711685e-04 x2098 - 0.000956262 x2099
   - 9.2471023332987953e-04 x2100 + 1000 x2625 + x2685 - x2691 <= 1000
 c_u_x2840_: 1.31578e-06 x686 + 6.40814e-07 x687 + 5.48086e-07 x688
   + 4.73477e-07 x689 - 0.00180918778254221 x1383
   - 9.0327859662730863e-04 x1384 - 7.1683558086914183e-04 x1385
   - 5.6952258076392365e-04 x1386 - 0.00141065350547184 x2103
   - 0.00132187111701557 x2104 - 0.00129556522413964 x2105
   - 0.00125281814821625 x2106 + 1000 x2627 + x2687 - x2689 <= 1000
 c_u_x2841_: 2.47373e-06 x690 + 1.20477e-06 x691 + 1.03043e-06 x692
   + 8.90165e-07 x693 - 0.00248067144400967 x1389
   - 0.00123853225312515 x1390 - 9.828905394294932e-04 x1391
   - 0.000780902 x1392 - 0.00193422037346446 x2109
   - 0.00181248622408558 x2110 - 0.00177641684649184 x2111
   - 0.001717804107902 x2112 + 1000 x2629 + x2687 - x2691 <= 1000
 c_u_x2842_: 5.86585e-06 x694 + 2.85681e-06 x695 + 2.44342e-06 x696
   + 2.11081e-06 x697 - 0.00381995444058237 x1395 - 0.0019072 x1396
   - 0.00151354065439287 x1397 - 0.0012025011070681 x1398
   - 0.00297848137951625 x2115 - 0.00279102450947676 x2116
   - 0.00273548173316877 x2117 - 0.00264522472166827 x2118 + 1000 x2631
   + x2689 - x2691 <= 1000
 c_u_x2843_: 5.84874e-06 x698 + 2.84847e-06 x699 + 2.43629e-06 x700
   + 2.10465e-06 x701 - 0.00381437831402445 x1401
   - 0.00190441607208745 x1402 - 0.00151133128400096 x1403
   - 0.00120074577242645 x1404 - 0.00297413358181841 x2121
   - 0.00278695034939627 x2122 - 0.00273148865090082 x2123
   - 0.00264136339084572 x2124 + 1000 x2633 + x2697 - x2699 <= 1000
 c_u_x2844_: 4.02529e-06 x702 + 1.96041e-06 x703 + 1.67673e-06 x704
   + 1.44848e-06 x705 - 0.00316439746604705 x1407
   - 0.00157989818960946 x1408 - 0.00125379616066568 x1409
   - 9.9613529829034771e-04 x1410 - 0.00246733281158521 x2127
   - 0.0023120461311358 x2128 - 0.00226603526285449 x2129
   - 0.00219126760189736 x2130 + 1000 x2635 + x2697 - x2701 <= 1000
 c_u_x2845_: 5.3867e-06 x706 + 2.62345e-06 x707 + 2.24382e-06 x708
   + 1.93838e-06 x709 - 0.00366061357843532 x1413
   - 0.00182764549254122 x1414 - 0.00145040668865667 x1415
   - 0.00115234146089603 x1416 - 0.00285424068547574 x2133
   - 0.00267460315981642 x2134 - 0.00262137722628774 x2135
   - 0.00253488508430363 x2136 + 1000 x2637 + x2697 - x2703 <= 1000
 c_u_x2846_: 2.38057e-06 x710 + 1.15939e-06 x711 + 9.91623e-07 x712
   + 8.56638e-07 x713 - 0.00243350791708184 x1419
   - 0.00121498477793963 x1420 - 9.6420342770600024e-04 x1421
   - 7.6605520036091392e-04 x1422 - 0.00189744619488933 x2139
   - 0.00177802650430189 x2140 - 0.00174264289227598 x2141
   - 0.00168514452273388 x2142 + 1000 x2639 + x2697 - x2705 <= 1000
 c_u_x2847_: 1.2188e-06 x714 + 5.93586e-07 x715 + 5.07692e-07 x716
   + 4.38582e-07 x717 - 0.00174124392335623 x1425 - 0.000869356 x1426
   - 6.8991489511388299e-04 x1427 - 5.4813421942075471e-04 x1428
   - 0.00135767655965071 x2145 - 0.0012722283845678 x2146
   - 0.00124691040676546 x2147 - 0.00120576869283665 x2148 + 1000 x2641
   + x2699 - x2701 <= 1000
 c_u_x2848_: 2.48134e-06 x718 + 1.20847e-06 x719 + 1.0336e-06 x720
   + 8.92902e-07 x721 - 0.00248448200146932 x1431
   - 0.00124043476154784 x1432 - 9.8440035681626997e-04 x1433
   - 7.8210156789255958e-04 x1434 - 0.00193719152786321 x2151
   - 0.00181527038275294 x2152 - 0.00177914559901656 x2153
   - 0.00172044282544495 x2154 + 1000 x2643 + x2699 - x2703 <= 1000
 c_u_x2849_: 1.29296e-06 x722 + 6.29701e-07 x723 + 5.38581e-07 x724
   + 4.65267e-07 x725 - 0.00179343258167125 x1437
   - 8.9541245035458386e-04 x1438 - 0.000710593 x1439 - 0.000564563 x1440
   - 0.00139836891591597 x2157 - 0.00131035968344573 x2158
   - 0.00128428287382492 x2159 - 0.0012419080581911 x2160 + 1000 x2645
   + x2699 - x2705 <= 1000
 c_u_x2850_: 5.57113e-06 x726 + 2.71327e-06 x727 + 2.32065e-06 x728
   + 2.00475e-06 x729 - 0.00372275460260947 x1443
   - 0.00185867082758419 x1444 - 0.00147502817769695 x1445
   - 0.00117190312099593 x1446 - 0.00290269306528437 x2163
   - 0.0027200060891476 x2164 - 0.0026658766147367 x2165
   - 0.00257791621881899 x2166 + 1000 x2647 + x2701 - x2703 <= 1000
 c_u_x2851_: 2.30641e-06 x730 + 1.12328e-06 x731 + 9.60734e-07 x732
   + 8.29954e-07 x733 - 0.00239530598423771 x1449
   - 0.00119591158464213 x1450 - 0.000949067 x1451
   - 7.5402943742270421e-04 x1452 - 0.00186765951878949 x2169
   - 0.00175011451411043 x2170 - 0.0017152863645759 x2171
   - 0.00165869062158228 x2172 + 1000 x2649 + x2701 - x2705 <= 1000
 c_u_x2852_: 9.22184e-07 x734 + 4.49125e-07 x735 + 3.84135e-07 x736
   + 3.31845e-07 x737 - 0.00151461226164487 x1455 - 0.000756205 x1456
   - 0.000600119 x1457 - 4.767917915610544e-04 x1458
   - 0.00118096812112986 x2175 - 0.00110664145616365 x2176
   - 0.0010846187406181 x2177 - 0.00104883182785659 x2178 + 1000 x2651
   + x2703 - x2705 <= 1000
 c_u_x2981_: - x250 + x2974 <= 0
 c_u_x2982_: - x251 + x2976 <= 0
 c_u_x2983_: - x250 + x2978 <= 0
 c_u_x2984_: - x251 + x2980 <= 0
 c_u_x2985_: x250 - 3e+08 x2986 <= 0
 c_u_x2987_: x251 - 3e+08 x2988 <= 0
 c_u_x2989_: x2512 + 0.69 x2986 <= 1.69
 c_u_x2990_: x2525 + 0.69 x2988 <= 1.69
 c_u_x2991_: x2653 + 0.69 x2986 <= 1.69
 c_u_x2992_: x2662 + 0.69 x2988 <= 1.69
 c_u_x2993_: - x2512 + 0.51 x2986 <= -0.49
 c_u_x2994_: - x2525 + 0.51 x2988 <= -0.49
 c_u_x2995_: - x2653 + 0.51 x2986 <= -0.49
 c_u_x2996_: - x2662 + 0.51 x2988 <= -0.49
 c_u_x3013_: - x252 + x2998 <= 0
 c_u_x3014_: - x253 + x3000 <= 0
 c_u_x3015_: - x254 + x3002 <= 0
 c_u_x3016_: - x255 + x3004 <= 0
 c_u_x3017_: - x252 + x3006 <= 0
 c_u_x3018_: - x253 + x3008 <= 0
 c_u_x3019_: - x254 + x3010 <= 0
 c_u_x3020_: - x255 + x3012 <= 0
 c_u_x3021_: x252 - 1e+08 x3022 <= 0
 c_u_x3023_: x253 - 1e+08 x3024 <= 0
 c_u_x3025_: x254 - 1e+08 x3026 <= 0
 c_u_x3027_: x255 - 1e+08 x3028 <= 0
 c_u_x3029_: - 4485 x9 + x741 <= 0
 c_u_x3030_: - 6630 x10 + x742 <= 0
 c_u_x3031_: - 8970 x11 + x743 <= 0
 c_u_x3032_: - 10335 x12 + x744 <= 0
 c_u_x3033_: - 4485 x13 + x747 <= 0
 c_u_x3034_: - 6630 x14 + x748 <= 0
 c_u_x3035_: - 8970 x15 + x749 <= 0
 c_u_x3036_: - 10335 x16 + x750 <= 0
 c_u_x3037_: - 4485 x17 + x753 <= 0
 c_u_x3038_: - 6630 x18 + x754 <= 0
 c_u_x3039_: - 8970 x19 + x755 <= 0
 c_u_x3040_: - 10335 x20 + x756 <= 0
 c_u_x3041_: - 4485 x21 + x759 <= 0
 c_u_x3042_: - 6630 x22 + x760 <= 0
 c_u_x3043_: - 8970 x23 + x761 <= 0
 c_u_x3044_: - 10335 x24 + x762 <= 0
 c_u_x3045_: - 4485 x25 + x765 <= 0
 c_u_x3046_: - 6630 x26 + x766 <= 0
 c_u_x3047_: - 8970 x27 + x767 <= 0
 c_u_x3048_: - 10335 x28 + x768 <= 0
 c_u_x3049_: - 4485 x29 + x771 <= 0
 c_u_x3050_: - 6630 x30 + x772 <= 0
 c_u_x3051_: - 8970 x31 + x773 <= 0
 c_u_x3052_: - 10335 x32 + x774 <= 0
 c_u_x3053_: - 4485 x33 + x777 <= 0
 c_u_x3054_: - 6630 x34 + x778 <= 0
 c_u_x3055_: - 8970 x35 + x779 <= 0
 c_u_x3056_: - 10335 x36 + x780 <= 0
 c_u_x3057_: - 4485 x37 + x783 <= 0
 c_u_x3058_: - 6630 x38 + x784 <= 0
 c_u_x3059_: - 8970 x39 + x785 <= 0
 c_u_x3060_: - 10335 x40 + x786 <= 0
 c_u_x3061_: - 4485 x41 + x789 <= 0
 c_u_x3062_: - 6630 x42 + x790 <= 0
 c_u_x3063_: - 8970 x43 + x791 <= 0
 c_u_x3064_: - 10335 x44 + x792 <= 0
 c_u_x3065_: - 4485 x45 + x795 <= 0
 c_u_x3066_: - 6630 x46 + x796 <= 0
 c_u_x3067_: - 8970 x47 + x797 <= 0
 c_u_x3068_: - 10335 x48 + x798 <= 0
 c_u_x3069_: - 4485 x49 + x801 <= 0
 c_u_x3070_: - 6630 x50 + x802 <= 0
 c_u_x3071_: - 8970 x51 + x803 <= 0
 c_u_x3072_: - 10335 x52 + x804 <= 0
 c_u_x3073_: - 4485 x53 + x807 <= 0
 c_u_x3074_: - 6630 x54 + x808 <= 0
 c_u_x3075_: - 8970 x55 + x809 <= 0
 c_u_x3076_: - 10335 x56 + x810 <= 0
 c_u_x3077_: - 4485 x57 + x813 <= 0
 c_u_x3078_: - 6630 x58 + x814 <= 0
 c_u_x3079_: - 8970 x59 + x815 <= 0
 c_u_x3080_: - 10335 x60 + x816 <= 0
 c_u_x3081_: - 4485 x61 + x819 <= 0
 c_u_x3082_: - 6630 x62 + x820 <= 0
 c_u_x3083_: - 8970 x63 + x821 <= 0
 c_u_x3084_: - 10335 x64 + x822 <= 0
 c_u_x3085_: - 4485 x65 + x825 <= 0
 c_u_x3086_: - 6630 x66 + x826 <= 0
 c_u_x3087_: - 8970 x67 + x827 <= 0
 c_u_x3088_: - 10335 x68 + x828 <= 0
 c_u_x3089_: - 4485 x69 + x831 <= 0
 c_u_x3090_: - 6630 x70 + x832 <= 0
 c_u_x3091_: - 8970 x71 + x833 <= 0
 c_u_x3092_: - 10335 x72 + x834 <= 0
 c_u_x3093_: - 4485 x73 + x837 <= 0
 c_u_x3094_: - 6630 x74 + x838 <= 0
 c_u_x3095_: - 8970 x75 + x839 <= 0
 c_u_x3096_: - 10335 x76 + x840 <= 0
 c_u_x3097_: - 4485 x77 + x843 <= 0
 c_u_x3098_: - 6630 x78 + x844 <= 0
 c_u_x3099_: - 8970 x79 + x845 <= 0
 c_u_x3100_: - 10335 x80 + x846 <= 0
 c_u_x3101_: - 4485 x81 + x849 <= 0
 c_u_x3102_: - 6630 x82 + x850 <= 0
 c_u_x3103_: - 8970 x83 + x851 <= 0
 c_u_x3104_: - 10335 x84 + x852 <= 0
 c_u_x3105_: - 4485 x85 + x855 <= 0
 c_u_x3106_: - 6630 x86 + x856 <= 0
 c_u_x3107_: - 8970 x87 + x857 <= 0
 c_u_x3108_: - 10335 x88 + x858 <= 0
 c_u_x3109_: - 119.6 x89 + x861 <= 0
 c_u_x3110_: - 176.8 x90 + x862 <= 0
 c_u_x3111_: - 239.2 x91 + x863 <= 0
 c_u_x3112_: - 275.6 x92 + x864 <= 0
 c_u_x3113_: - 119.6 x93 + x867 <= 0
 c_u_x3114_: - 176.8 x94 + x868 <= 0
 c_u_x3115_: - 239.2 x95 + x869 <= 0
 c_u_x3116_: - 275.6 x96 + x870 <= 0
 c_u_x3117_: - 119.6 x97 + x873 <= 0
 c_u_x3118_: - 176.8 x98 + x874 <= 0
 c_u_x3119_: - 239.2 x99 + x875 <= 0
 c_u_x3120_: - 275.6 x100 + x876 <= 0
 c_u_x3121_: - 119.6 x101 + x879 <= 0
 c_u_x3122_: - 176.8 x102 + x880 <= 0
 c_u_x3123_: - 239.2 x103 + x881 <= 0
 c_u_x3124_: - 275.6 x104 + x882 <= 0
 c_u_x3125_: - 119.6 x105 + x885 <= 0
 c_u_x3126_: - 176.8 x106 + x886 <= 0
 c_u_x3127_: - 239.2 x107 + x887 <= 0
 c_u_x3128_: - 275.6 x108 + x888 <= 0
 c_u_x3129_: - 119.6 x109 + x891 <= 0
 c_u_x3130_: - 176.8 x110 + x892 <= 0
 c_u_x3131_: - 239.2 x111 + x893 <= 0
 c_u_x3132_: - 275.6 x112 + x894 <= 0
 c_u_x3133_: - 119.6 x113 + x897 <= 0
 c_u_x3134_: - 176.8 x114 + x898 <= 0
 c_u_x3135_: - 239.2 x115 + x899 <= 0
 c_u_x3136_: - 275.6 x116 + x900 <= 0
 c_u_x3137_: - 119.6 x117 + x903 <= 0
 c_u_x3138_: - 176.8 x118 + x904 <= 0
 c_u_x3139_: - 239.2 x119 + x905 <= 0
 c_u_x3140_: - 275.6 x120 + x906 <= 0
 c_u_x3141_: - 119.6 x121 + x909 <= 0
 c_u_x3142_: - 176.8 x122 + x910 <= 0
 c_u_x3143_: - 239.2 x123 + x911 <= 0
 c_u_x3144_: - 275.6 x124 + x912 <= 0
 c_u_x3145_: - 119.6 x125 + x915 <= 0
 c_u_x3146_: - 176.8 x126 + x916 <= 0
 c_u_x3147_: - 239.2 x127 + x917 <= 0
 c_u_x3148_: - 275.6 x128 + x918 <= 0
 c_u_x3149_: - 119.6 x129 + x921 <= 0
 c_u_x3150_: - 176.8 x130 + x922 <= 0
 c_u_x3151_: - 239.2 x131 + x923 <= 0
 c_u_x3152_: - 275.6 x132 + x924 <= 0
 c_u_x3153_: - 119.6 x133 + x927 <= 0
 c_u_x3154_: - 176.8 x134 + x928 <= 0
 c_u_x3155_: - 239.2 x135 + x929 <= 0
 c_u_x3156_: - 275.6 x136 + x930 <= 0
 c_u_x3157_: - 119.6 x137 + x933 <= 0
 c_u_x3158_: - 176.8 x138 + x934 <= 0
 c_u_x3159_: - 239.2 x139 + x935 <= 0
 c_u_x3160_: - 275.6 x140 + x936 <= 0
 c_u_x3161_: - 119.6 x141 + x939 <= 0
 c_u_x3162_: - 176.8 x142 + x940 <= 0
 c_u_x3163_: - 239.2 x143 + x941 <= 0
 c_u_x3164_: - 275.6 x144 + x942 <= 0
 c_u_x3165_: - 119.6 x145 + x945 <= 0
 c_u_x3166_: - 176.8 x146 + x946 <= 0
 c_u_x3167_: - 239.2 x147 + x947 <= 0
 c_u_x3168_: - 275.6 x148 + x948 <= 0
 c_u_x3169_: - 119.6 x149 + x951 <= 0
 c_u_x3170_: - 176.8 x150 + x952 <= 0
 c_u_x3171_: - 239.2 x151 + x953 <= 0
 c_u_x3172_: - 275.6 x152 + x954 <= 0
 c_u_x3173_: - 119.6 x153 + x957 <= 0
 c_u_x3174_: - 176.8 x154 + x958 <= 0
 c_u_x3175_: - 239.2 x155 + x959 <= 0
 c_u_x3176_: - 275.6 x156 + x960 <= 0
 c_u_x3177_: - 119.6 x157 + x963 <= 0
 c_u_x3178_: - 176.8 x158 + x964 <= 0
 c_u_x3179_: - 239.2 x159 + x965 <= 0
 c_u_x3180_: - 275.6 x160 + x966 <= 0
 c_u_x3181_: - 4485 x161 + x969 <= 0
 c_u_x3182_: - 6630 x162 + x970 <= 0
 c_u_x3183_: - 8970 x163 + x971 <= 0
 c_u_x3184_: - 10335 x164 + x972 <= 0
 c_u_x3185_: - 4485 x165 + x975 <= 0
 c_u_x3186_: - 6630 x166 + x976 <= 0
 c_u_x3187_: - 8970 x167 + x977 <= 0
 c_u_x3188_: - 10335 x168 + x978 <= 0
 c_u_x3189_: - 4485 x169 + x981 <= 0
 c_u_x3190_: - 6630 x170 + x982 <= 0
 c_u_x3191_: - 8970 x171 + x983 <= 0
 c_u_x3192_: - 10335 x172 + x984 <= 0
 c_u_x3193_: - 4485 x173 + x987 <= 0
 c_u_x3194_: - 6630 x174 + x988 <= 0
 c_u_x3195_: - 8970 x175 + x989 <= 0
 c_u_x3196_: - 10335 x176 + x990 <= 0
 c_u_x3197_: - 4485 x177 + x993 <= 0
 c_u_x3198_: - 6630 x178 + x994 <= 0
 c_u_x3199_: - 8970 x179 + x995 <= 0
 c_u_x3200_: - 10335 x180 + x996 <= 0
 c_u_x3201_: - 4485 x181 + x999 <= 0
 c_u_x3202_: - 6630 x182 + x1000 <= 0
 c_u_x3203_: - 8970 x183 + x1001 <= 0
 c_u_x3204_: - 10335 x184 + x1002 <= 0
 c_u_x3205_: - 119.6 x185 + x1005 <= 0
 c_u_x3206_: - 176.8 x186 + x1006 <= 0
 c_u_x3207_: - 239.2 x187 + x1007 <= 0
 c_u_x3208_: - 275.6 x188 + x1008 <= 0
 c_u_x3209_: - 119.6 x189 + x1011 <= 0
 c_u_x3210_: - 176.8 x190 + x1012 <= 0
 c_u_x3211_: - 239.2 x191 + x1013 <= 0
 c_u_x3212_: - 275.6 x192 + x1014 <= 0
 c_u_x3213_: - 119.6 x193 + x1017 <= 0
 c_u_x3214_: - 176.8 x194 + x1018 <= 0
 c_u_x3215_: - 239.2 x195 + x1019 <= 0
 c_u_x3216_: - 275.6 x196 + x1020 <= 0
 c_u_x3217_: - 119.6 x197 + x1023 <= 0
 c_u_x3218_: - 176.8 x198 + x1024 <= 0
 c_u_x3219_: - 239.2 x199 + x1025 <= 0
 c_u_x3220_: - 275.6 x200 + x1026 <= 0
 c_u_x3221_: - 119.6 x201 + x1029 <= 0
 c_u_x3222_: - 176.8 x202 + x1030 <= 0
 c_u_x3223_: - 239.2 x203 + x1031 <= 0
 c_u_x3224_: - 275.6 x204 + x1032 <= 0
 c_u_x3225_: - 119.6 x205 + x1035 <= 0
 c_u_x3226_: - 176.8 x206 + x1036 <= 0
 c_u_x3227_: - 239.2 x207 + x1037 <= 0
 c_u_x3228_: - 275.6 x208 + x1038 <= 0
 c_u_x3229_: - 119.6 x209 + x1041 <= 0
 c_u_x3230_: - 176.8 x210 + x1042 <= 0
 c_u_x3231_: - 239.2 x211 + x1043 <= 0
 c_u_x3232_: - 275.6 x212 + x1044 <= 0
 c_u_x3233_: - 119.6 x213 + x1047 <= 0
 c_u_x3234_: - 176.8 x214 + x1048 <= 0
 c_u_x3235_: - 239.2 x215 + x1049 <= 0
 c_u_x3236_: - 275.6 x216 + x1050 <= 0
 c_u_x3237_: - 119.6 x217 + x1053 <= 0
 c_u_x3238_: - 176.8 x218 + x1054 <= 0
 c_u_x3239_: - 239.2 x219 + x1055 <= 0
 c_u_x3240_: - 275.6 x220 + x1056 <= 0
 c_u_x3241_: - 119.6 x221 + x1059 <= 0
 c_u_x3242_: - 176.8 x222 + x1060 <= 0
 c_u_x3243_: - 239.2 x223 + x1061 <= 0
 c_u_x3244_: - 275.6 x224 + x1062 <= 0
 c_u_x3245_: - 119.6 x225 + x1065 <= 0
 c_u_x3246_: - 176.8 x226 + x1066 <= 0
 c_u_x3247_: - 239.2 x227 + x1067 <= 0
 c_u_x3248_: - 275.6 x228 + x1068 <= 0
 c_u_x3249_: - 119.6 x229 + x1071 <= 0
 c_u_x3250_: - 176.8 x230 + x1072 <= 0
 c_u_x3251_: - 239.2 x231 + x1073 <= 0
 c_u_x3252_: - 275.6 x232 + x1074 <= 0
 c_u_x3253_: - 119.6 x233 + x1077 <= 0
 c_u_x3254_: - 176.8 x234 + x1078 <= 0
 c_u_x3255_: - 239.2 x235 + x1079 <= 0
 c_u_x3256_: - 275.6 x236 + x1080 <= 0
 c_u_x3257_: - 119.6 x237 + x1083 <= 0
 c_u_x3258_: - 176.8 x238 + x1084 <= 0
 c_u_x3259_: - 239.2 x239 + x1085 <= 0
 c_u_x3260_: - 275.6 x240 + x1086 <= 0
 c_u_x3261_: - 119.6 x241 + x1089 <= 0
 c_u_x3262_: - 176.8 x242 + x1090 <= 0
 c_u_x3263_: - 239.2 x243 + x1091 <= 0
 c_u_x3264_: - 275.6 x244 + x1092 <= 0
 c_u_x3265_: - 119.6 x245 + x1095 <= 0
 c_u_x3266_: - 176.8 x246 + x1096 <= 0
 c_u_x3267_: - 239.2 x247 + x1097 <= 0
 c_u_x3268_: - 275.6 x248 + x1098 <= 0
 c_u_x3269_: - 4485 x9 + x1101 <= 0
 c_u_x3270_: - 6630 x10 + x1102 <= 0
 c_u_x3271_: - 8970 x11 + x1103 <= 0
 c_u_x3272_: - 10335 x12 + x1104 <= 0
 c_u_x3273_: - 4485 x13 + x1107 <= 0
 c_u_x3274_: - 6630 x14 + x1108 <= 0
 c_u_x3275_: - 8970 x15 + x1109 <= 0
 c_u_x3276_: - 10335 x16 + x1110 <= 0
 c_u_x3277_: - 4485 x17 + x1113 <= 0
 c_u_x3278_: - 6630 x18 + x1114 <= 0
 c_u_x3279_: - 8970 x19 + x1115 <= 0
 c_u_x3280_: - 10335 x20 + x1116 <= 0
 c_u_x3281_: - 4485 x21 + x1119 <= 0
 c_u_x3282_: - 6630 x22 + x1120 <= 0
 c_u_x3283_: - 8970 x23 + x1121 <= 0
 c_u_x3284_: - 10335 x24 + x1122 <= 0
 c_u_x3285_: - 4485 x25 + x1125 <= 0
 c_u_x3286_: - 6630 x26 + x1126 <= 0
 c_u_x3287_: - 8970 x27 + x1127 <= 0
 c_u_x3288_: - 10335 x28 + x1128 <= 0
 c_u_x3289_: - 4485 x29 + x1131 <= 0
 c_u_x3290_: - 6630 x30 + x1132 <= 0
 c_u_x3291_: - 8970 x31 + x1133 <= 0
 c_u_x3292_: - 10335 x32 + x1134 <= 0
 c_u_x3293_: - 4485 x33 + x1137 <= 0
 c_u_x3294_: - 6630 x34 + x1138 <= 0
 c_u_x3295_: - 8970 x35 + x1139 <= 0
 c_u_x3296_: - 10335 x36 + x1140 <= 0
 c_u_x3297_: - 4485 x37 + x1143 <= 0
 c_u_x3298_: - 6630 x38 + x1144 <= 0
 c_u_x3299_: - 8970 x39 + x1145 <= 0
 c_u_x3300_: - 10335 x40 + x1146 <= 0
 c_u_x3301_: - 4485 x41 + x1149 <= 0
 c_u_x3302_: - 6630 x42 + x1150 <= 0
 c_u_x3303_: - 8970 x43 + x1151 <= 0
 c_u_x3304_: - 10335 x44 + x1152 <= 0
 c_u_x3305_: - 4485 x45 + x1155 <= 0
 c_u_x3306_: - 6630 x46 + x1156 <= 0
 c_u_x3307_: - 8970 x47 + x1157 <= 0
 c_u_x3308_: - 10335 x48 + x1158 <= 0
 c_u_x3309_: - 4485 x49 + x1161 <= 0
 c_u_x3310_: - 6630 x50 + x1162 <= 0
 c_u_x3311_: - 8970 x51 + x1163 <= 0
 c_u_x3312_: - 10335 x52 + x1164 <= 0
 c_u_x3313_: - 4485 x53 + x1167 <= 0
 c_u_x3314_: - 6630 x54 + x1168 <= 0
 c_u_x3315_: - 8970 x55 + x1169 <= 0
 c_u_x3316_: - 10335 x56 + x1170 <= 0
 c_u_x3317_: - 4485 x57 + x1173 <= 0
 c_u_x3318_: - 6630 x58 + x1174 <= 0
 c_u_x3319_: - 8970 x59 + x1175 <= 0
 c_u_x3320_: - 10335 x60 + x1176 <= 0
 c_u_x3321_: - 4485 x61 + x1179 <= 0
 c_u_x3322_: - 6630 x62 + x1180 <= 0
 c_u_x3323_: - 8970 x63 + x1181 <= 0
 c_u_x3324_: - 10335 x64 + x1182 <= 0
 c_u_x3325_: - 4485 x65 + x1185 <= 0
 c_u_x3326_: - 6630 x66 + x1186 <= 0
 c_u_x3327_: - 8970 x67 + x1187 <= 0
 c_u_x3328_: - 10335 x68 + x1188 <= 0
 c_u_x3329_: - 4485 x69 + x1191 <= 0
 c_u_x3330_: - 6630 x70 + x1192 <= 0
 c_u_x3331_: - 8970 x71 + x1193 <= 0
 c_u_x3332_: - 10335 x72 + x1194 <= 0
 c_u_x3333_: - 4485 x73 + x1197 <= 0
 c_u_x3334_: - 6630 x74 + x1198 <= 0
 c_u_x3335_: - 8970 x75 + x1199 <= 0
 c_u_x3336_: - 10335 x76 + x1200 <= 0
 c_u_x3337_: - 4485 x77 + x1203 <= 0
 c_u_x3338_: - 6630 x78 + x1204 <= 0
 c_u_x3339_: - 8970 x79 + x1205 <= 0
 c_u_x3340_: - 10335 x80 + x1206 <= 0
 c_u_x3341_: - 4485 x81 + x1209 <= 0
 c_u_x3342_: - 6630 x82 + x1210 <= 0
 c_u_x3343_: - 8970 x83 + x1211 <= 0
 c_u_x3344_: - 10335 x84 + x1212 <= 0
 c_u_x3345_: - 4485 x85 + x1215 <= 0
 c_u_x3346_: - 6630 x86 + x1216 <= 0
 c_u_x3347_: - 8970 x87 + x1217 <= 0
 c_u_x3348_: - 10335 x88 + x1218 <= 0
 c_u_x3349_: - 119.6 x89 + x1221 <= 0
 c_u_x3350_: - 176.8 x90 + x1222 <= 0
 c_u_x3351_: - 239.2 x91 + x1223 <= 0
 c_u_x3352_: - 275.6 x92 + x1224 <= 0
 c_u_x3353_: - 119.6 x93 + x1227 <= 0
 c_u_x3354_: - 176.8 x94 + x1228 <= 0
 c_u_x3355_: - 239.2 x95 + x1229 <= 0
 c_u_x3356_: - 275.6 x96 + x1230 <= 0
 c_u_x3357_: - 119.6 x97 + x1233 <= 0
 c_u_x3358_: - 176.8 x98 + x1234 <= 0
 c_u_x3359_: - 239.2 x99 + x1235 <= 0
 c_u_x3360_: - 275.6 x100 + x1236 <= 0
 c_u_x3361_: - 119.6 x101 + x1239 <= 0
 c_u_x3362_: - 176.8 x102 + x1240 <= 0
 c_u_x3363_: - 239.2 x103 + x1241 <= 0
 c_u_x3364_: - 275.6 x104 + x1242 <= 0
 c_u_x3365_: - 119.6 x105 + x1245 <= 0
 c_u_x3366_: - 176.8 x106 + x1246 <= 0
 c_u_x3367_: - 239.2 x107 + x1247 <= 0
 c_u_x3368_: - 275.6 x108 + x1248 <= 0
 c_u_x3369_: - 119.6 x109 + x1251 <= 0
 c_u_x3370_: - 176.8 x110 + x1252 <= 0
 c_u_x3371_: - 239.2 x111 + x1253 <= 0
 c_u_x3372_: - 275.6 x112 + x1254 <= 0
 c_u_x3373_: - 119.6 x113 + x1257 <= 0
 c_u_x3374_: - 176.8 x114 + x1258 <= 0
 c_u_x3375_: - 239.2 x115 + x1259 <= 0
 c_u_x3376_: - 275.6 x116 + x1260 <= 0
 c_u_x3377_: - 119.6 x117 + x1263 <= 0
 c_u_x3378_: - 176.8 x118 + x1264 <= 0
 c_u_x3379_: - 239.2 x119 + x1265 <= 0
 c_u_x3380_: - 275.6 x120 + x1266 <= 0
 c_u_x3381_: - 119.6 x121 + x1269 <= 0
 c_u_x3382_: - 176.8 x122 + x1270 <= 0
 c_u_x3383_: - 239.2 x123 + x1271 <= 0
 c_u_x3384_: - 275.6 x124 + x1272 <= 0
 c_u_x3385_: - 119.6 x125 + x1275 <= 0
 c_u_x3386_: - 176.8 x126 + x1276 <= 0
 c_u_x3387_: - 239.2 x127 + x1277 <= 0
 c_u_x3388_: - 275.6 x128 + x1278 <= 0
 c_u_x3389_: - 119.6 x129 + x1281 <= 0
 c_u_x3390_: - 176.8 x130 + x1282 <= 0
 c_u_x3391_: - 239.2 x131 + x1283 <= 0
 c_u_x3392_: - 275.6 x132 + x1284 <= 0
 c_u_x3393_: - 119.6 x133 + x1287 <= 0
 c_u_x3394_: - 176.8 x134 + x1288 <= 0
 c_u_x3395_: - 239.2 x135 + x1289 <= 0
 c_u_x3396_: - 275.6 x136 + x1290 <= 0
 c_u_x3397_: - 119.6 x137 + x1293 <= 0
 c_u_x3398_: - 176.8 x138 + x1294 <= 0
 c_u_x3399_: - 239.2 x139 + x1295 <= 0
 c_u_x3400_: - 275.6 x140 + x1296 <= 0
 c_u_x3401_: - 119.6 x141 + x1299 <= 0
 c_u_x3402_: - 176.8 x142 + x1300 <= 0
 c_u_x3403_: - 239.2 x143 + x1301 <= 0
 c_u_x3404_: - 275.6 x144 + x1302 <= 0
 c_u_x3405_: - 119.6 x145 + x1305 <= 0
 c_u_x3406_: - 176.8 x146 + x1306 <= 0
 c_u_x3407_: - 239.2 x147 + x1307 <= 0
 c_u_x3408_: - 275.6 x148 + x1308 <= 0
 c_u_x3409_: - 119.6 x149 + x1311 <= 0
 c_u_x3410_: - 176.8 x150 + x1312 <= 0
 c_u_x3411_: - 239.2 x151 + x1313 <= 0
 c_u_x3412_: - 275.6 x152 + x1314 <= 0
 c_u_x3413_: - 119.6 x153 + x1317 <= 0
 c_u_x3414_: - 176.8 x154 + x1318 <= 0
 c_u_x3415_: - 239.2 x155 + x1319 <= 0
 c_u_x3416_: - 275.6 x156 + x1320 <= 0
 c_u_x3417_: - 119.6 x157 + x1323 <= 0
 c_u_x3418_: - 176.8 x158 + x1324 <= 0
 c_u_x3419_: - 239.2 x159 + x1325 <= 0
 c_u_x3420_: - 275.6 x160 + x1326 <= 0
 c_u_x3421_: - 4485 x161 + x1329 <= 0
 c_u_x3422_: - 6630 x162 + x1330 <= 0
 c_u_x3423_: - 8970 x163 + x1331 <= 0
 c_u_x3424_: - 10335 x164 + x1332 <= 0
 c_u_x3425_: - 4485 x165 + x1335 <= 0
 c_u_x3426_: - 6630 x166 + x1336 <= 0
 c_u_x3427_: - 8970 x167 + x1337 <= 0
 c_u_x3428_: - 10335 x168 + x1338 <= 0
 c_u_x3429_: - 4485 x169 + x1341 <= 0
 c_u_x3430_: - 6630 x170 + x1342 <= 0
 c_u_x3431_: - 8970 x171 + x1343 <= 0
 c_u_x3432_: - 10335 x172 + x1344 <= 0
 c_u_x3433_: - 4485 x173 + x1347 <= 0
 c_u_x3434_: - 6630 x174 + x1348 <= 0
 c_u_x3435_: - 8970 x175 + x1349 <= 0
 c_u_x3436_: - 10335 x176 + x1350 <= 0
 c_u_x3437_: - 4485 x177 + x1353 <= 0
 c_u_x3438_: - 6630 x178 + x1354 <= 0
 c_u_x3439_: - 8970 x179 + x1355 <= 0
 c_u_x3440_: - 10335 x180 + x1356 <= 0
 c_u_x3441_: - 4485 x181 + x1359 <= 0
 c_u_x3442_: - 6630 x182 + x1360 <= 0
 c_u_x3443_: - 8970 x183 + x1361 <= 0
 c_u_x3444_: - 10335 x184 + x1362 <= 0
 c_u_x3445_: - 119.6 x185 + x1365 <= 0
 c_u_x3446_: - 176.8 x186 + x1366 <= 0
 c_u_x3447_: - 239.2 x187 + x1367 <= 0
 c_u_x3448_: - 275.6 x188 + x1368 <= 0
 c_u_x3449_: - 119.6 x189 + x1371 <= 0
 c_u_x3450_: - 176.8 x190 + x1372 <= 0
 c_u_x3451_: - 239.2 x191 + x1373 <= 0
 c_u_x3452_: - 275.6 x192 + x1374 <= 0
 c_u_x3453_: - 119.6 x193 + x1377 <= 0
 c_u_x3454_: - 176.8 x194 + x1378 <= 0
 c_u_x3455_: - 239.2 x195 + x1379 <= 0
 c_u_x3456_: - 275.6 x196 + x1380 <= 0
 c_u_x3457_: - 119.6 x197 + x1383 <= 0
 c_u_x3458_: - 176.8 x198 + x1384 <= 0
 c_u_x3459_: - 239.2 x199 + x1385 <= 0
 c_u_x3460_: - 275.6 x200 + x1386 <= 0
 c_u_x3461_: - 119.6 x201 + x1389 <= 0
 c_u_x3462_: - 176.8 x202 + x1390 <= 0
 c_u_x3463_: - 239.2 x203 + x1391 <= 0
 c_u_x3464_: - 275.6 x204 + x1392 <= 0
 c_u_x3465_: - 119.6 x205 + x1395 <= 0
 c_u_x3466_: - 176.8 x206 + x1396 <= 0
 c_u_x3467_: - 239.2 x207 + x1397 <= 0
 c_u_x3468_: - 275.6 x208 + x1398 <= 0
 c_u_x3469_: - 119.6 x209 + x1401 <= 0
 c_u_x3470_: - 176.8 x210 + x1402 <= 0
 c_u_x3471_: - 239.2 x211 + x1403 <= 0
 c_u_x3472_: - 275.6 x212 + x1404 <= 0
 c_u_x3473_: - 119.6 x213 + x1407 <= 0
 c_u_x3474_: - 176.8 x214 + x1408 <= 0
 c_u_x3475_: - 239.2 x215 + x1409 <= 0
 c_u_x3476_: - 275.6 x216 + x1410 <= 0
 c_u_x3477_: - 119.6 x217 + x1413 <= 0
 c_u_x3478_: - 176.8 x218 + x1414 <= 0
 c_u_x3479_: - 239.2 x219 + x1415 <= 0
 c_u_x3480_: - 275.6 x220 + x1416 <= 0
 c_u_x3481_: - 119.6 x221 + x1419 <= 0
 c_u_x3482_: - 176.8 x222 + x1420 <= 0
 c_u_x3483_: - 239.2 x223 + x1421 <= 0
 c_u_x3484_: - 275.6 x224 + x1422 <= 0
 c_u_x3485_: - 119.6 x225 + x1425 <= 0
 c_u_x3486_: - 176.8 x226 + x1426 <= 0
 c_u_x3487_: - 239.2 x227 + x1427 <= 0
 c_u_x3488_: - 275.6 x228 + x1428 <= 0
 c_u_x3489_: - 119.6 x229 + x1431 <= 0
 c_u_x3490_: - 176.8 x230 + x1432 <= 0
 c_u_x3491_: - 239.2 x231 + x1433 <= 0
 c_u_x3492_: - 275.6 x232 + x1434 <= 0
 c_u_x3493_: - 119.6 x233 + x1437 <= 0
 c_u_x3494_: - 176.8 x234 + x1438 <= 0
 c_u_x3495_: - 239.2 x235 + x1439 <= 0
 c_u_x3496_: - 275.6 x236 + x1440 <= 0
 c_u_x3497_: - 119.6 x237 + x1443 <= 0
 c_u_x3498_: - 176.8 x238 + x1444 <= 0
 c_u_x3499_: - 239.2 x239 + x1445 <= 0
 c_u_x3500_: - 275.6 x240 + x1446 <= 0
 c_u_x3501_: - 119.6 x241 + x1449 <= 0
 c_u_x3502_: - 176.8 x242 + x1450 <= 0
 c_u_x3503_: - 239.2 x243 + x1451 <= 0
 c_u_x3504_: - 275.6 x244 + x1452 <= 0
 c_u_x3505_: - 119.6 x245 + x1455 <= 0
 c_u_x3506_: - 176.8 x246 + x1456 <= 0
 c_u_x3507_: - 239.2 x247 + x1457 <= 0
 c_u_x3508_: - 275.6 x248 + x1458 <= 0
 c_u_x3509_: - 4485 x9 - x741 <= 0
 c_u_x3510_: - 6630 x10 - x742 <= 0
 c_u_x3511_: - 8970 x11 - x743 <= 0
 c_u_x3512_: - 10335 x12 - x744 <= 0
 c_u_x3513_: - 4485 x13 - x747 <= 0
 c_u_x3514_: - 6630 x14 - x748 <= 0
 c_u_x3515_: - 8970 x15 - x749 <= 0
 c_u_x3516_: - 10335 x16 - x750 <= 0
 c_u_x3517_: - 4485 x17 - x753 <= 0
 c_u_x3518_: - 6630 x18 - x754 <= 0
 c_u_x3519_: - 8970 x19 - x755 <= 0
 c_u_x3520_: - 10335 x20 - x756 <= 0
 c_u_x3521_: - 4485 x21 - x759 <= 0
 c_u_x3522_: - 6630 x22 - x760 <= 0
 c_u_x3523_: - 8970 x23 - x761 <= 0
 c_u_x3524_: - 10335 x24 - x762 <= 0
 c_u_x3525_: - 4485 x25 - x765 <= 0
 c_u_x3526_: - 6630 x26 - x766 <= 0
 c_u_x3527_: - 8970 x27 - x767 <= 0
 c_u_x3528_: - 10335 x28 - x768 <= 0
 c_u_x3529_: - 4485 x29 - x771 <= 0
 c_u_x3530_: - 6630 x30 - x772 <= 0
 c_u_x3531_: - 8970 x31 - x773 <= 0
 c_u_x3532_: - 10335 x32 - x774 <= 0
 c_u_x3533_: - 4485 x33 - x777 <= 0
 c_u_x3534_: - 6630 x34 - x778 <= 0
 c_u_x3535_: - 8970 x35 - x779 <= 0
 c_u_x3536_: - 10335 x36 - x780 <= 0
 c_u_x3537_: - 4485 x37 - x783 <= 0
 c_u_x3538_: - 6630 x38 - x784 <= 0
 c_u_x3539_: - 8970 x39 - x785 <= 0
 c_u_x3540_: - 10335 x40 - x786 <= 0
 c_u_x3541_: - 4485 x41 - x789 <= 0
 c_u_x3542_: - 6630 x42 - x790 <= 0
 c_u_x3543_: - 8970 x43 - x791 <= 0
 c_u_x3544_: - 10335 x44 - x792 <= 0
 c_u_x3545_: - 4485 x45 - x795 <= 0
 c_u_x3546_: - 6630 x46 - x796 <= 0
 c_u_x3547_: - 8970 x47 - x797 <= 0
 c_u_x3548_: - 10335 x48 - x798 <= 0
 c_u_x3549_: - 4485 x49 - x801 <= 0
 c_u_x3550_: - 6630 x50 - x802 <= 0
 c_u_x3551_: - 8970 x51 - x803 <= 0
 c_u_x3552_: - 10335 x52 - x804 <= 0
 c_u_x3553_: - 4485 x53 - x807 <= 0
 c_u_x3554_: - 6630 x54 - x808 <= 0
 c_u_x3555_: - 8970 x55 - x809 <= 0
 c_u_x3556_: - 10335 x56 - x810 <= 0
 c_u_x3557_: - 4485 x57 - x813 <= 0
 c_u_x3558_: - 6630 x58 - x814 <= 0
 c_u_x3559_: - 8970 x59 - x815 <= 0
 c_u_x3560_: - 10335 x60 - x816 <= 0
 c_u_x3561_: - 4485 x61 - x819 <= 0
 c_u_x3562_: - 6630 x62 - x820 <= 0
 c_u_x3563_: - 8970 x63 - x821 <= 0
 c_u_x3564_: - 10335 x64 - x822 <= 0
 c_u_x3565_: - 4485 x65 - x825 <= 0
 c_u_x3566_: - 6630 x66 - x826 <= 0
 c_u_x3567_: - 8970 x67 - x827 <= 0
 c_u_x3568_: - 10335 x68 - x828 <= 0
 c_u_x3569_: - 4485 x69 - x831 <= 0
 c_u_x3570_: - 6630 x70 - x832 <= 0
 c_u_x3571_: - 8970 x71 - x833 <= 0
 c_u_x3572_: - 10335 x72 - x834 <= 0
 c_u_x3573_: - 4485 x73 - x837 <= 0
 c_u_x3574_: - 6630 x74 - x838 <= 0
 c_u_x3575_: - 8970 x75 - x839 <= 0
 c_u_x3576_: - 10335 x76 - x840 <= 0
 c_u_x3577_: - 4485 x77 - x843 <= 0
 c_u_x3578_: - 6630 x78 - x844 <= 0
 c_u_x3579_: - 8970 x79 - x845 <= 0
 c_u_x3580_: - 10335 x80 - x846 <= 0
 c_u_x3581_: - 4485 x81 - x849 <= 0
 c_u_x3582_: - 6630 x82 - x850 <= 0
 c_u_x3583_: - 8970 x83 - x851 <= 0
 c_u_x3584_: - 10335 x84 - x852 <= 0
 c_u_x3585_: - 4485 x85 - x855 <= 0
 c_u_x3586_: - 6630 x86 - x856 <= 0
 c_u_x3587_: - 8970 x87 - x857 <= 0
 c_u_x3588_: - 10335 x88 - x858 <= 0
 c_u_x3589_: - 119.6 x89 - x861 <= 0
 c_u_x3590_: - 176.8 x90 - x862 <= 0
 c_u_x3591_: - 239.2 x91 - x863 <= 0
 c_u_x3592_: - 275.6 x92 - x864 <= 0
 c_u_x3593_: - 119.6 x93 - x867 <= 0
 c_u_x3594_: - 176.8 x94 - x868 <= 0
 c_u_x3595_: - 239.2 x95 - x869 <= 0
 c_u_x3596_: - 275.6 x96 - x870 <= 0
 c_u_x3597_: - 119.6 x97 - x873 <= 0
 c_u_x3598_: - 176.8 x98 - x874 <= 0
 c_u_x3599_: - 239.2 x99 - x875 <= 0
 c_u_x3600_: - 275.6 x100 - x876 <= 0
 c_u_x3601_: - 119.6 x101 - x879 <= 0
 c_u_x3602_: - 176.8 x102 - x880 <= 0
 c_u_x3603_: - 239.2 x103 - x881 <= 0
 c_u_x3604_: - 275.6 x104 - x882 <= 0
 c_u_x3605_: - 119.6 x105 - x885 <= 0
 c_u_x3606_: - 176.8 x106 - x886 <= 0
 c_u_x3607_: - 239.2 x107 - x887 <= 0
 c_u_x3608_: - 275.6 x108 - x888 <= 0
 c_u_x3609_: - 119.6 x109 - x891 <= 0
 c_u_x3610_: - 176.8 x110 - x892 <= 0
 c_u_x3611_: - 239.2 x111 - x893 <= 0
 c_u_x3612_: - 275.6 x112 - x894 <= 0
 c_u_x3613_: - 119.6 x113 - x897 <= 0
 c_u_x3614_: - 176.8 x114 - x898 <= 0
 c_u_x3615_: - 239.2 x115 - x899 <= 0
 c_u_x3616_: - 275.6 x116 - x900 <= 0
 c_u_x3617_: - 119.6 x117 - x903 <= 0
 c_u_x3618_: - 176.8 x118 - x904 <= 0
 c_u_x3619_: - 239.2 x119 - x905 <= 0
 c_u_x3620_: - 275.6 x120 - x906 <= 0
 c_u_x3621_: - 119.6 x121 - x909 <= 0
 c_u_x3622_: - 176.8 x122 - x910 <= 0
 c_u_x3623_: - 239.2 x123 - x911 <= 0
 c_u_x3624_: - 275.6 x124 - x912 <= 0
 c_u_x3625_: - 119.6 x125 - x915 <= 0
 c_u_x3626_: - 176.8 x126 - x916 <= 0
 c_u_x3627_: - 239.2 x127 - x917 <= 0
 c_u_x3628_: - 275.6 x128 - x918 <= 0
 c_u_x3629_: - 119.6 x129 - x921 <= 0
 c_u_x3630_: - 176.8 x130 - x922 <= 0
 c_u_x3631_: - 239.2 x131 - x923 <= 0
 c_u_x3632_: - 275.6 x132 - x924 <= 0
 c_u_x3633_: - 119.6 x133 - x927 <= 0
 c_u_x3634_: - 176.8 x134 - x928 <= 0
 c_u_x3635_: - 239.2 x135 - x929 <= 0
 c_u_x3636_: - 275.6 x136 - x930 <= 0
 c_u_x3637_: - 119.6 x137 - x933 <= 0
 c_u_x3638_: - 176.8 x138 - x934 <= 0
 c_u_x3639_: - 239.2 x139 - x935 <= 0
 c_u_x3640_: - 275.6 x140 - x936 <= 0
 c_u_x3641_: - 119.6 x141 - x939 <= 0
 c_u_x3642_: - 176.8 x142 - x940 <= 0
 c_u_x3643_: - 239.2 x143 - x941 <= 0
 c_u_x3644_: - 275.6 x144 - x942 <= 0
 c_u_x3645_: - 119.6 x145 - x945 <= 0
 c_u_x3646_: - 176.8 x146 - x946 <= 0
 c_u_x3647_: - 239.2 x147 - x947 <= 0
 c_u_x3648_: - 275.6 x148 - x948 <= 0
 c_u_x3649_: - 119.6 x149 - x951 <= 0
 c_u_x3650_: - 176.8 x150 - x952 <= 0
 c_u_x3651_: - 239.2 x151 - x953 <= 0
 c_u_x3652_: - 275.6 x152 - x954 <= 0
 c_u_x3653_: - 119.6 x153 - x957 <= 0
 c_u_x3654_: - 176.8 x154 - x958 <= 0
 c_u_x3655_: - 239.2 x155 - x959 <= 0
 c_u_x3656_: - 275.6 x156 - x960 <= 0
 c_u_x3657_: - 119.6 x157 - x963 <= 0
 c_u_x3658_: - 176.8 x158 - x964 <= 0
 c_u_x3659_: - 239.2 x159 - x965 <= 0
 c_u_x3660_: - 275.6 x160 - x966 <= 0
 c_u_x3661_: - 4485 x161 - x969 <= 0
 c_u_x3662_: - 6630 x162 - x970 <= 0
 c_u_x3663_: - 8970 x163 - x971 <= 0
 c_u_x3664_: - 10335 x164 - x972 <= 0
 c_u_x3665_: - 4485 x165 - x975 <= 0
 c_u_x3666_: - 6630 x166 - x976 <= 0
 c_u_x3667_: - 8970 x167 - x977 <= 0
 c_u_x3668_: - 10335 x168 - x978 <= 0
 c_u_x3669_: - 4485 x169 - x981 <= 0
 c_u_x3670_: - 6630 x170 - x982 <= 0
 c_u_x3671_: - 8970 x171 - x983 <= 0
 c_u_x3672_: - 10335 x172 - x984 <= 0
 c_u_x3673_: - 4485 x173 - x987 <= 0
 c_u_x3674_: - 6630 x174 - x988 <= 0
 c_u_x3675_: - 8970 x175 - x989 <= 0
 c_u_x3676_: - 10335 x176 - x990 <= 0
 c_u_x3677_: - 4485 x177 - x993 <= 0
 c_u_x3678_: - 6630 x178 - x994 <= 0
 c_u_x3679_: - 8970 x179 - x995 <= 0
 c_u_x3680_: - 10335 x180 - x996 <= 0
 c_u_x3681_: - 4485 x181 - x999 <= 0
 c_u_x3682_: - 6630 x182 - x1000 <= 0
 c_u_x3683_: - 8970 x183 - x1001 <= 0
 c_u_x3684_: - 10335 x184 - x1002 <= 0
 c_u_x3685_: - 119.6 x185 - x1005 <= 0
 c_u_x3686_: - 176.8 x186 - x1006 <= 0
 c_u_x3687_: - 239.2 x187 - x1007 <= 0
 c_u_x3688_: - 275.6 x188 - x1008 <= 0
 c_u_x3689_: - 119.6 x189 - x1011 <= 0
 c_u_x3690_: - 176.8 x190 - x1012 <= 0
 c_u_x3691_: - 239.2 x191 - x1013 <= 0
 c_u_x3692_: - 275.6 x192 - x1014 <= 0
 c_u_x3693_: - 119.6 x193 - x1017 <= 0
 c_u_x3694_: - 176.8 x194 - x1018 <= 0
 c_u_x3695_: - 239.2 x195 - x1019 <= 0
 c_u_x3696_: - 275.6 x196 - x1020 <= 0
 c_u_x3697_: - 119.6 x197 - x1023 <= 0
 c_u_x3698_: - 176.8 x198 - x1024 <= 0
 c_u_x3699_: - 239.2 x199 - x1025 <= 0
 c_u_x3700_: - 275.6 x200 - x1026 <= 0
 c_u_x3701_: - 119.6 x201 - x1029 <= 0
 c_u_x3702_: - 176.8 x202 - x1030 <= 0
 c_u_x3703_: - 239.2 x203 - x1031 <= 0
 c_u_x3704_: - 275.6 x204 - x1032 <= 0
 c_u_x3705_: - 119.6 x205 - x1035 <= 0
 c_u_x3706_: - 176.8 x206 - x1036 <= 0
 c_u_x3707_: - 239.2 x207 - x1037 <= 0
 c_u_x3708_: - 275.6 x208 - x1038 <= 0
 c_u_x3709_: - 119.6 x209 - x1041 <= 0
 c_u_x3710_: - 176.8 x210 - x1042 <= 0
 c_u_x3711_: - 239.2 x211 - x1043 <= 0
 c_u_x3712_: - 275.6 x212 - x1044 <= 0
 c_u_x3713_: - 119.6 x213 - x1047 <= 0
 c_u_x3714_: - 176.8 x214 - x1048 <= 0
 c_u_x3715_: - 239.2 x215 - x1049 <= 0
 c_u_x3716_: - 275.6 x216 - x1050 <= 0
 c_u_x3717_: - 119.6 x217 - x1053 <= 0
 c_u_x3718_: - 176.8 x218 - x1054 <= 0
 c_u_x3719_: - 239.2 x219 - x1055 <= 0
 c_u_x3720_: - 275.6 x220 - x1056 <= 0
 c_u_x3721_: - 119.6 x221 - x1059 <= 0
 c_u_x3722_: - 176.8 x222 - x1060 <= 0
 c_u_x3723_: - 239.2 x223 - x1061 <= 0
 c_u_x3724_: - 275.6 x224 - x1062 <= 0
 c_u_x3725_: - 119.6 x225 - x1065 <= 0
 c_u_x3726_: - 176.8 x226 - x1066 <= 0
 c_u_x3727_: - 239.2 x227 - x1067 <= 0
 c_u_x3728_: - 275.6 x228 - x1068 <= 0
 c_u_x3729_: - 119.6 x229 - x1071 <= 0
 c_u_x3730_: - 176.8 x230 - x1072 <= 0
 c_u_x3731_: - 239.2 x231 - x1073 <= 0
 c_u_x3732_: - 275.6 x232 - x1074 <= 0
 c_u_x3733_: - 119.6 x233 - x1077 <= 0
 c_u_x3734_: - 176.8 x234 - x1078 <= 0
 c_u_x3735_: - 239.2 x235 - x1079 <= 0
 c_u_x3736_: - 275.6 x236 - x1080 <= 0
 c_u_x3737_: - 119.6 x237 - x1083 <= 0
 c_u_x3738_: - 176.8 x238 - x1084 <= 0
 c_u_x3739_: - 239.2 x239 - x1085 <= 0
 c_u_x3740_: - 275.6 x240 - x1086 <= 0
 c_u_x3741_: - 119.6 x241 - x1089 <= 0
 c_u_x3742_: - 176.8 x242 - x1090 <= 0
 c_u_x3743_: - 239.2 x243 - x1091 <= 0
 c_u_x3744_: - 275.6 x244 - x1092 <= 0
 c_u_x3745_: - 119.6 x245 - x1095 <= 0
 c_u_x3746_: - 176.8 x246 - x1096 <= 0
 c_u_x3747_: - 239.2 x247 - x1097 <= 0
 c_u_x3748_: - 275.6 x248 - x1098 <= 0
 c_u_x3749_: - 4485 x9 - x1101 <= 0
 c_u_x3750_: - 6630 x10 - x1102 <= 0
 c_u_x3751_: - 8970 x11 - x1103 <= 0
 c_u_x3752_: - 10335 x12 - x1104 <= 0
 c_u_x3753_: - 4485 x13 - x1107 <= 0
 c_u_x3754_: - 6630 x14 - x1108 <= 0
 c_u_x3755_: - 8970 x15 - x1109 <= 0
 c_u_x3756_: - 10335 x16 - x1110 <= 0
 c_u_x3757_: - 4485 x17 - x1113 <= 0
 c_u_x3758_: - 6630 x18 - x1114 <= 0
 c_u_x3759_: - 8970 x19 - x1115 <= 0
 c_u_x3760_: - 10335 x20 - x1116 <= 0
 c_u_x3761_: - 4485 x21 - x1119 <= 0
 c_u_x3762_: - 6630 x22 - x1120 <= 0
 c_u_x3763_: - 8970 x23 - x1121 <= 0
 c_u_x3764_: - 10335 x24 - x1122 <= 0
 c_u_x3765_: - 4485 x25 - x1125 <= 0
 c_u_x3766_: - 6630 x26 - x1126 <= 0
 c_u_x3767_: - 8970 x27 - x1127 <= 0
 c_u_x3768_: - 10335 x28 - x1128 <= 0
 c_u_x3769_: - 4485 x29 - x1131 <= 0
 c_u_x3770_: - 6630 x30 - x1132 <= 0
 c_u_x3771_: - 8970 x31 - x1133 <= 0
 c_u_x3772_: - 10335 x32 - x1134 <= 0
 c_u_x3773_: - 4485 x33 - x1137 <= 0
 c_u_x3774_: - 6630 x34 - x1138 <= 0
 c_u_x3775_: - 8970 x35 - x1139 <= 0
 c_u_x3776_: - 10335 x36 - x1140 <= 0
 c_u_x3777_: - 4485 x37 - x1143 <= 0
 c_u_x3778_: - 6630 x38 - x1144 <= 0
 c_u_x3779_: - 8970 x39 - x1145 <= 0
 c_u_x3780_: - 10335 x40 - x1146 <= 0
 c_u_x3781_: - 4485 x41 - x1149 <= 0
 c_u_x3782_: - 6630 x42 - x1150 <= 0
 c_u_x3783_: - 8970 x43 - x1151 <= 0
 c_u_x3784_: - 10335 x44 - x1152 <= 0
 c_u_x3785_: - 4485 x45 - x1155 <= 0
 c_u_x3786_: - 6630 x46 - x1156 <= 0
 c_u_x3787_: - 8970 x47 - x1157 <= 0
 c_u_x3788_: - 10335 x48 - x1158 <= 0
 c_u_x3789_: - 4485 x49 - x1161 <= 0
 c_u_x3790_: - 6630 x50 - x1162 <= 0
 c_u_x3791_: - 8970 x51 - x1163 <= 0
 c_u_x3792_: - 10335 x52 - x1164 <= 0
 c_u_x3793_: - 4485 x53 - x1167 <= 0
 c_u_x3794_: - 6630 x54 - x1168 <= 0
 c_u_x3795_: - 8970 x55 - x1169 <= 0
 c_u_x3796_: - 10335 x56 - x1170 <= 0
 c_u_x3797_: - 4485 x57 - x1173 <= 0
 c_u_x3798_: - 6630 x58 - x1174 <= 0
 c_u_x3799_: - 8970 x59 - x1175 <= 0
 c_u_x3800_: - 10335 x60 - x1176 <= 0
 c_u_x3801_: - 4485 x61 - x1179 <= 0
 c_u_x3802_: - 6630 x62 - x1180 <= 0
 c_u_x3803_: - 8970 x63 - x1181 <= 0
 c_u_x3804_: - 10335 x64 - x1182 <= 0
 c_u_x3805_: - 4485 x65 - x1185 <= 0
 c_u_x3806_: - 6630 x66 - x1186 <= 0
 c_u_x3807_: - 8970 x67 - x1187 <= 0
 c_u_x3808_: - 10335 x68 - x1188 <= 0
 c_u_x3809_: - 4485 x69 - x1191 <= 0
 c_u_x3810_: - 6630 x70 - x1192 <= 0
 c_u_x3811_: - 8970 x71 - x1193 <= 0
 c_u_x3812_: - 10335 x72 - x1194 <= 0
 c_u_x3813_: - 4485 x73 - x1197 <= 0
 c_u_x3814_: - 6630 x74 - x1198 <= 0
 c_u_x3815_: - 8970 x75 - x1199 <= 0
 c_u_x3816_: - 10335 x76 - x1200 <= 0
 c_u_x3817_: - 4485 x77 - x1203 <= 0
 c_u_x3818_: - 6630 x78 - x1204 <= 0
 c_u_x3819_: - 8970 x79 - x1205 <= 0
 c_u_x3820_: - 10335 x80 - x1206 <= 0
 c_u_x3821_: - 4485 x81 - x1209 <= 0
 c_u_x3822_: - 6630 x82 - x1210 <= 0
 c_u_x3823_: - 8970 x83 - x1211 <= 0
 c_u_x3824_: - 10335 x84 - x1212 <= 0
 c_u_x3825_: - 4485 x85 - x1215 <= 0
 c_u_x3826_: - 6630 x86 - x1216 <= 0
 c_u_x3827_: - 8970 x87 - x1217 <= 0
 c_u_x3828_: - 10335 x88 - x1218 <= 0
 c_u_x3829_: - 119.6 x89 - x1221 <= 0
 c_u_x3830_: - 176.8 x90 - x1222 <= 0
 c_u_x3831_: - 239.2 x91 - x1223 <= 0
 c_u_x3832_: - 275.6 x92 - x1224 <= 0
 c_u_x3833_: - 119.6 x93 - x1227 <= 0
 c_u_x3834_: - 176.8 x94 - x1228 <= 0
 c_u_x3835_: - 239.2 x95 - x1229 <= 0
 c_u_x3836_: - 275.6 x96 - x1230 <= 0
 c_u_x3837_: - 119.6 x97 - x1233 <= 0
 c_u_x3838_: - 176.8 x98 - x1234 <= 0
 c_u_x3839_: - 239.2 x99 - x1235 <= 0
 c_u_x3840_: - 275.6 x100 - x1236 <= 0
 c_u_x3841_: - 119.6 x101 - x1239 <= 0
 c_u_x3842_: - 176.8 x102 - x1240 <= 0
 c_u_x3843_: - 239.2 x103 - x1241 <= 0
 c_u_x3844_: - 275.6 x104 - x1242 <= 0
 c_u_x3845_: - 119.6 x105 - x1245 <= 0
 c_u_x3846_: - 176.8 x106 - x1246 <= 0
 c_u_x3847_: - 239.2 x107 - x1247 <= 0
 c_u_x3848_: - 275.6 x108 - x1248 <= 0
 c_u_x3849_: - 119.6 x109 - x1251 <= 0
 c_u_x3850_: - 176.8 x110 - x1252 <= 0
 c_u_x3851_: - 239.2 x111 - x1253 <= 0
 c_u_x3852_: - 275.6 x112 - x1254 <= 0
 c_u_x3853_: - 119.6 x113 - x1257 <= 0
 c_u_x3854_: - 176.8 x114 - x1258 <= 0
 c_u_x3855_: - 239.2 x115 - x1259 <= 0
 c_u_x3856_: - 275.6 x116 - x1260 <= 0
 c_u_x3857_: - 119.6 x117 - x1263 <= 0
 c_u_x3858_: - 176.8 x118 - x1264 <= 0
 c_u_x3859_: - 239.2 x119 - x1265 <= 0
 c_u_x3860_: - 275.6 x120 - x1266 <= 0
 c_u_x3861_: - 119.6 x121 - x1269 <= 0
 c_u_x3862_: - 176.8 x122 - x1270 <= 0
 c_u_x3863_: - 239.2 x123 - x1271 <= 0
 c_u_x3864_: - 275.6 x124 - x1272 <= 0
 c_u_x3865_: - 119.6 x125 - x1275 <= 0
 c_u_x3866_: - 176.8 x126 - x1276 <= 0
 c_u_x3867_: - 239.2 x127 - x1277 <= 0
 c_u_x3868_: - 275.6 x128 - x1278 <= 0
 c_u_x3869_: - 119.6 x129 - x1281 <= 0
 c_u_x3870_: - 176.8 x130 - x1282 <= 0
 c_u_x3871_: - 239.2 x131 - x1283 <= 0
 c_u_x3872_: - 275.6 x132 - x1284 <= 0
 c_u_x3873_: - 119.6 x133 - x1287 <= 0
 c_u_x3874_: - 176.8 x134 - x1288 <= 0
 c_u_x3875_: - 239.2 x135 - x1289 <= 0
 c_u_x3876_: - 275.6 x136 - x1290 <= 0
 c_u_x3877_: - 119.6 x137 - x1293 <= 0
 c_u_x3878_: - 176.8 x138 - x1294 <= 0
 c_u_x3879_: - 239.2 x139 - x1295 <= 0
 c_u_x3880_: - 275.6 x140 - x1296 <= 0
 c_u_x3881_: - 119.6 x141 - x1299 <= 0
 c_u_x3882_: - 176.8 x142 - x1300 <= 0
 c_u_x3883_: - 239.2 x143 - x1301 <= 0
 c_u_x3884_: - 275.6 x144 - x1302 <= 0
 c_u_x3885_: - 119.6 x145 - x1305 <= 0
 c_u_x3886_: - 176.8 x146 - x1306 <= 0
 c_u_x3887_: - 239.2 x147 - x1307 <= 0
 c_u_x3888_: - 275.6 x148 - x1308 <= 0
 c_u_x3889_: - 119.6 x149 - x1311 <= 0
 c_u_x3890_: - 176.8 x150 - x1312 <= 0
 c_u_x3891_: - 239.2 x151 - x1313 <= 0
 c_u_x3892_: - 275.6 x152 - x1314 <= 0
 c_u_x3893_: - 119.6 x153 - x1317 <= 0
 c_u_x3894_: - 176.8 x154 - x1318 <= 0
 c_u_x3895_: - 239.2 x155 - x1319 <= 0
 c_u_x3896_: - 275.6 x156 - x1320 <= 0
 c_u_x3897_: - 119.6 x157 - x1323 <= 0
 c_u_x3898_: - 176.8 x158 - x1324 <= 0
 c_u_x3899_: - 239.2 x159 - x1325 <= 0
 c_u_x3900_: - 275.6 x160 - x1326 <= 0
 c_u_x3901_: - 4485 x161 - x1329 <= 0
 c_u_x3902_: - 6630 x162 - x1330 <= 0
 c_u_x3903_: - 8970 x163 - x1331 <= 0
 c_u_x3904_: - 10335 x164 - x1332 <= 0
 c_u_x3905_: - 4485 x165 - x1335 <= 0
 c_u_x3906_: - 6630 x166 - x1336 <= 0
 c_u_x3907_: - 8970 x167 - x1337 <= 0
 c_u_x3908_: - 10335 x168 - x1338 <= 0
 c_u_x3909_: - 4485 x169 - x1341 <= 0
 c_u_x3910_: - 6630 x170 - x1342 <= 0
 c_u_x3911_: - 8970 x171 - x1343 <= 0
 c_u_x3912_: - 10335 x172 - x1344 <= 0
 c_u_x3913_: - 4485 x173 - x1347 <= 0
 c_u_x3914_: - 6630 x174 - x1348 <= 0
 c_u_x3915_: - 8970 x175 - x1349 <= 0
 c_u_x3916_: - 10335 x176 - x1350 <= 0
 c_u_x3917_: - 4485 x177 - x1353 <= 0
 c_u_x3918_: - 6630 x178 - x1354 <= 0
 c_u_x3919_: - 8970 x179 - x1355 <= 0
 c_u_x3920_: - 10335 x180 - x1356 <= 0
 c_u_x3921_: - 4485 x181 - x1359 <= 0
 c_u_x3922_: - 6630 x182 - x1360 <= 0
 c_u_x3923_: - 8970 x183 - x1361 <= 0
 c_u_x3924_: - 10335 x184 - x1362 <= 0
 c_u_x3925_: - 119.6 x185 - x1365 <= 0
 c_u_x3926_: - 176.8 x186 - x1366 <= 0
 c_u_x3927_: - 239.2 x187 - x1367 <= 0
 c_u_x3928_: - 275.6 x188 - x1368 <= 0
 c_u_x3929_: - 119.6 x189 - x1371 <= 0
 c_u_x3930_: - 176.8 x190 - x1372 <= 0
 c_u_x3931_: - 239.2 x191 - x1373 <= 0
 c_u_x3932_: - 275.6 x192 - x1374 <= 0
 c_u_x3933_: - 119.6 x193 - x1377 <= 0
 c_u_x3934_: - 176.8 x194 - x1378 <= 0
 c_u_x3935_: - 239.2 x195 - x1379 <= 0
 c_u_x3936_: - 275.6 x196 - x1380 <= 0
 c_u_x3937_: - 119.6 x197 - x1383 <= 0
 c_u_x3938_: - 176.8 x198 - x1384 <= 0
 c_u_x3939_: - 239.2 x199 - x1385 <= 0
 c_u_x3940_: - 275.6 x200 - x1386 <= 0
 c_u_x3941_: - 119.6 x201 - x1389 <= 0
 c_u_x3942_: - 176.8 x202 - x1390 <= 0
 c_u_x3943_: - 239.2 x203 - x1391 <= 0
 c_u_x3944_: - 275.6 x204 - x1392 <= 0
 c_u_x3945_: - 119.6 x205 - x1395 <= 0
 c_u_x3946_: - 176.8 x206 - x1396 <= 0
 c_u_x3947_: - 239.2 x207 - x1397 <= 0
 c_u_x3948_: - 275.6 x208 - x1398 <= 0
 c_u_x3949_: - 119.6 x209 - x1401 <= 0
 c_u_x3950_: - 176.8 x210 - x1402 <= 0
 c_u_x3951_: - 239.2 x211 - x1403 <= 0
 c_u_x3952_: - 275.6 x212 - x1404 <= 0
 c_u_x3953_: - 119.6 x213 - x1407 <= 0
 c_u_x3954_: - 176.8 x214 - x1408 <= 0
 c_u_x3955_: - 239.2 x215 - x1409 <= 0
 c_u_x3956_: - 275.6 x216 - x1410 <= 0
 c_u_x3957_: - 119.6 x217 - x1413 <= 0
 c_u_x3958_: - 176.8 x218 - x1414 <= 0
 c_u_x3959_: - 239.2 x219 - x1415 <= 0
 c_u_x3960_: - 275.6 x220 - x1416 <= 0
 c_u_x3961_: - 119.6 x221 - x1419 <= 0
 c_u_x3962_: - 176.8 x222 - x1420 <= 0
 c_u_x3963_: - 239.2 x223 - x1421 <= 0
 c_u_x3964_: - 275.6 x224 - x1422 <= 0
 c_u_x3965_: - 119.6 x225 - x1425 <= 0
 c_u_x3966_: - 176.8 x226 - x1426 <= 0
 c_u_x3967_: - 239.2 x227 - x1427 <= 0
 c_u_x3968_: - 275.6 x228 - x1428 <= 0
 c_u_x3969_: - 119.6 x229 - x1431 <= 0
 c_u_x3970_: - 176.8 x230 - x1432 <= 0
 c_u_x3971_: - 239.2 x231 - x1433 <= 0
 c_u_x3972_: - 275.6 x232 - x1434 <= 0
 c_u_x3973_: - 119.6 x233 - x1437 <= 0
 c_u_x3974_: - 176.8 x234 - x1438 <= 0
 c_u_x3975_: - 239.2 x235 - x1439 <= 0
 c_u_x3976_: - 275.6 x236 - x1440 <= 0
 c_u_x3977_: - 119.6 x237 - x1443 <= 0
 c_u_x3978_: - 176.8 x238 - x1444 <= 0
 c_u_x3979_: - 239.2 x239 - x1445 <= 0
 c_u_x3980_: - 275.6 x240 - x1446 <= 0
 c_u_x3981_: - 119.6 x241 - x1449 <= 0
 c_u_x3982_: - 176.8 x242 - x1450 <= 0
 c_u_x3983_: - 239.2 x243 - x1451 <= 0
 c_u_x3984_: - 275.6 x244 - x1452 <= 0
 c_u_x3985_: - 119.6 x245 - x1455 <= 0
 c_u_x3986_: - 176.8 x246 - x1456 <= 0
 c_u_x3987_: - 239.2 x247 - x1457 <= 0
 c_u_x3988_: - 275.6 x248 - x1458 <= 0
 c_u_x3989_: - 4485 x9 + x1461 <= 0
 c_u_x3990_: - 6630 x10 + x1462 <= 0
 c_u_x3991_: - 8970 x11 + x1463 <= 0
 c_u_x3992_: - 10335 x12 + x1464 <= 0
 c_u_x3993_: - 4485 x13 + x1467 <= 0
 c_u_x3994_: - 6630 x14 + x1468 <= 0
 c_u_x3995_: - 8970 x15 + x1469 <= 0
 c_u_x3996_: - 10335 x16 + x1470 <= 0
 c_u_x3997_: - 4485 x17 + x1473 <= 0
 c_u_x3998_: - 6630 x18 + x1474 <= 0
 c_u_x3999_: - 8970 x19 + x1475 <= 0
 c_u_x4000_: - 10335 x20 + x1476 <= 0
 c_u_x4001_: - 4485 x21 + x1479 <= 0
 c_u_x4002_: - 6630 x22 + x1480 <= 0
 c_u_x4003_: - 8970 x23 + x1481 <= 0
 c_u_x4004_: - 10335 x24 + x1482 <= 0
 c_u_x4005_: - 4485 x25 + x1485 <= 0
 c_u_x4006_: - 6630 x26 + x1486 <= 0
 c_u_x4007_: - 8970 x27 + x1487 <= 0
 c_u_x4008_: - 10335 x28 + x1488 <= 0
 c_u_x4009_: - 4485 x29 + x1491 <= 0
 c_u_x4010_: - 6630 x30 + x1492 <= 0
 c_u_x4011_: - 8970 x31 + x1493 <= 0
 c_u_x4012_: - 10335 x32 + x1494 <= 0
 c_u_x4013_: - 4485 x33 + x1497 <= 0
 c_u_x4014_: - 6630 x34 + x1498 <= 0
 c_u_x4015_: - 8970 x35 + x1499 <= 0
 c_u_x4016_: - 10335 x36 + x1500 <= 0
 c_u_x4017_: - 4485 x37 + x1503 <= 0
 c_u_x4018_: - 6630 x38 + x1504 <= 0
 c_u_x4019_: - 8970 x39 + x1505 <= 0
 c_u_x4020_: - 10335 x40 + x1506 <= 0
 c_u_x4021_: - 4485 x41 + x1509 <= 0
 c_u_x4022_: - 6630 x42 + x1510 <= 0
 c_u_x4023_: - 8970 x43 + x1511 <= 0
 c_u_x4024_: - 10335 x44 + x1512 <= 0
 c_u_x4025_: - 4485 x45 + x1515 <= 0
 c_u_x4026_: - 6630 x46 + x1516 <= 0
 c_u_x4027_: - 8970 x47 + x1517 <= 0
 c_u_x4028_: - 10335 x48 + x1518 <= 0
 c_u_x4029_: - 4485 x49 + x1521 <= 0
 c_u_x4030_: - 6630 x50 + x1522 <= 0
 c_u_x4031_: - 8970 x51 + x1523 <= 0
 c_u_x4032_: - 10335 x52 + x1524 <= 0
 c_u_x4033_: - 4485 x53 + x1527 <= 0
 c_u_x4034_: - 6630 x54 + x1528 <= 0
 c_u_x4035_: - 8970 x55 + x1529 <= 0
 c_u_x4036_: - 10335 x56 + x1530 <= 0
 c_u_x4037_: - 4485 x57 + x1533 <= 0
 c_u_x4038_: - 6630 x58 + x1534 <= 0
 c_u_x4039_: - 8970 x59 + x1535 <= 0
 c_u_x4040_: - 10335 x60 + x1536 <= 0
 c_u_x4041_: - 4485 x61 + x1539 <= 0
 c_u_x4042_: - 6630 x62 + x1540 <= 0
 c_u_x4043_: - 8970 x63 + x1541 <= 0
 c_u_x4044_: - 10335 x64 + x1542 <= 0
 c_u_x4045_: - 4485 x65 + x1545 <= 0
 c_u_x4046_: - 6630 x66 + x1546 <= 0
 c_u_x4047_: - 8970 x67 + x1547 <= 0
 c_u_x4048_: - 10335 x68 + x1548 <= 0
 c_u_x4049_: - 4485 x69 + x1551 <= 0
 c_u_x4050_: - 6630 x70 + x1552 <= 0
 c_u_x4051_: - 8970 x71 + x1553 <= 0
 c_u_x4052_: - 10335 x72 + x1554 <= 0
 c_u_x4053_: - 4485 x73 + x1557 <= 0
 c_u_x4054_: - 6630 x74 + x1558 <= 0
 c_u_x4055_: - 8970 x75 + x1559 <= 0
 c_u_x4056_: - 10335 x76 + x1560 <= 0
 c_u_x4057_: - 4485 x77 + x1563 <= 0
 c_u_x4058_: - 6630 x78 + x1564 <= 0
 c_u_x4059_: - 8970 x79 + x1565 <= 0
 c_u_x4060_: - 10335 x80 + x1566 <= 0
 c_u_x4061_: - 4485 x81 + x1569 <= 0
 c_u_x4062_: - 6630 x82 + x1570 <= 0
 c_u_x4063_: - 8970 x83 + x1571 <= 0
 c_u_x4064_: - 10335 x84 + x1572 <= 0
 c_u_x4065_: - 4485 x85 + x1575 <= 0
 c_u_x4066_: - 6630 x86 + x1576 <= 0
 c_u_x4067_: - 8970 x87 + x1577 <= 0
 c_u_x4068_: - 10335 x88 + x1578 <= 0
 c_u_x4069_: - 119.6 x89 + x1581 <= 0
 c_u_x4070_: - 176.8 x90 + x1582 <= 0
 c_u_x4071_: - 239.2 x91 + x1583 <= 0
 c_u_x4072_: - 275.6 x92 + x1584 <= 0
 c_u_x4073_: - 119.6 x93 + x1587 <= 0
 c_u_x4074_: - 176.8 x94 + x1588 <= 0
 c_u_x4075_: - 239.2 x95 + x1589 <= 0
 c_u_x4076_: - 275.6 x96 + x1590 <= 0
 c_u_x4077_: - 119.6 x97 + x1593 <= 0
 c_u_x4078_: - 176.8 x98 + x1594 <= 0
 c_u_x4079_: - 239.2 x99 + x1595 <= 0
 c_u_x4080_: - 275.6 x100 + x1596 <= 0
 c_u_x4081_: - 119.6 x101 + x1599 <= 0
 c_u_x4082_: - 176.8 x102 + x1600 <= 0
 c_u_x4083_: - 239.2 x103 + x1601 <= 0
 c_u_x4084_: - 275.6 x104 + x1602 <= 0
 c_u_x4085_: - 119.6 x105 + x1605 <= 0
 c_u_x4086_: - 176.8 x106 + x1606 <= 0
 c_u_x4087_: - 239.2 x107 + x1607 <= 0
 c_u_x4088_: - 275.6 x108 + x1608 <= 0
 c_u_x4089_: - 119.6 x109 + x1611 <= 0
 c_u_x4090_: - 176.8 x110 + x1612 <= 0
 c_u_x4091_: - 239.2 x111 + x1613 <= 0
 c_u_x4092_: - 275.6 x112 + x1614 <= 0
 c_u_x4093_: - 119.6 x113 + x1617 <= 0
 c_u_x4094_: - 176.8 x114 + x1618 <= 0
 c_u_x4095_: - 239.2 x115 + x1619 <= 0
 c_u_x4096_: - 275.6 x116 + x1620 <= 0
 c_u_x4097_: - 119.6 x117 + x1623 <= 0
 c_u_x4098_: - 176.8 x118 + x1624 <= 0
 c_u_x4099_: - 239.2 x119 + x1625 <= 0
 c_u_x4100_: - 275.6 x120 + x1626 <= 0
 c_u_x4101_: - 119.6 x121 + x1629 <= 0
 c_u_x4102_: - 176.8 x122 + x1630 <= 0
 c_u_x4103_: - 239.2 x123 + x1631 <= 0
 c_u_x4104_: - 275.6 x124 + x1632 <= 0
 c_u_x4105_: - 119.6 x125 + x1635 <= 0
 c_u_x4106_: - 176.8 x126 + x1636 <= 0
 c_u_x4107_: - 239.2 x127 + x1637 <= 0
 c_u_x4108_: - 275.6 x128 + x1638 <= 0
 c_u_x4109_: - 119.6 x129 + x1641 <= 0
 c_u_x4110_: - 176.8 x130 + x1642 <= 0
 c_u_x4111_: - 239.2 x131 + x1643 <= 0
 c_u_x4112_: - 275.6 x132 + x1644 <= 0
 c_u_x4113_: - 119.6 x133 + x1647 <= 0
 c_u_x4114_: - 176.8 x134 + x1648 <= 0
 c_u_x4115_: - 239.2 x135 + x1649 <= 0
 c_u_x4116_: - 275.6 x136 + x1650 <= 0
 c_u_x4117_: - 119.6 x137 + x1653 <= 0
 c_u_x4118_: - 176.8 x138 + x1654 <= 0
 c_u_x4119_: - 239.2 x139 + x1655 <= 0
 c_u_x4120_: - 275.6 x140 + x1656 <= 0
 c_u_x4121_: - 119.6 x141 + x1659 <= 0
 c_u_x4122_: - 176.8 x142 + x1660 <= 0
 c_u_x4123_: - 239.2 x143 + x1661 <= 0
 c_u_x4124_: - 275.6 x144 + x1662 <= 0
 c_u_x4125_: - 119.6 x145 + x1665 <= 0
 c_u_x4126_: - 176.8 x146 + x1666 <= 0
 c_u_x4127_: - 239.2 x147 + x1667 <= 0
 c_u_x4128_: - 275.6 x148 + x1668 <= 0
 c_u_x4129_: - 119.6 x149 + x1671 <= 0
 c_u_x4130_: - 176.8 x150 + x1672 <= 0
 c_u_x4131_: - 239.2 x151 + x1673 <= 0
 c_u_x4132_: - 275.6 x152 + x1674 <= 0
 c_u_x4133_: - 119.6 x153 + x1677 <= 0
 c_u_x4134_: - 176.8 x154 + x1678 <= 0
 c_u_x4135_: - 239.2 x155 + x1679 <= 0
 c_u_x4136_: - 275.6 x156 + x1680 <= 0
 c_u_x4137_: - 119.6 x157 + x1683 <= 0
 c_u_x4138_: - 176.8 x158 + x1684 <= 0
 c_u_x4139_: - 239.2 x159 + x1685 <= 0
 c_u_x4140_: - 275.6 x160 + x1686 <= 0
 c_u_x4141_: - 4485 x161 + x1689 <= 0
 c_u_x4142_: - 6630 x162 + x1690 <= 0
 c_u_x4143_: - 8970 x163 + x1691 <= 0
 c_u_x4144_: - 10335 x164 + x1692 <= 0
 c_u_x4145_: - 4485 x165 + x1695 <= 0
 c_u_x4146_: - 6630 x166 + x1696 <= 0
 c_u_x4147_: - 8970 x167 + x1697 <= 0
 c_u_x4148_: - 10335 x168 + x1698 <= 0
 c_u_x4149_: - 4485 x169 + x1701 <= 0
 c_u_x4150_: - 6630 x170 + x1702 <= 0
 c_u_x4151_: - 8970 x171 + x1703 <= 0
 c_u_x4152_: - 10335 x172 + x1704 <= 0
 c_u_x4153_: - 4485 x173 + x1707 <= 0
 c_u_x4154_: - 6630 x174 + x1708 <= 0
 c_u_x4155_: - 8970 x175 + x1709 <= 0
 c_u_x4156_: - 10335 x176 + x1710 <= 0
 c_u_x4157_: - 4485 x177 + x1713 <= 0
 c_u_x4158_: - 6630 x178 + x1714 <= 0
 c_u_x4159_: - 8970 x179 + x1715 <= 0
 c_u_x4160_: - 10335 x180 + x1716 <= 0
 c_u_x4161_: - 4485 x181 + x1719 <= 0
 c_u_x4162_: - 6630 x182 + x1720 <= 0
 c_u_x4163_: - 8970 x183 + x1721 <= 0
 c_u_x4164_: - 10335 x184 + x1722 <= 0
 c_u_x4165_: - 119.6 x185 + x1725 <= 0
 c_u_x4166_: - 176.8 x186 + x1726 <= 0
 c_u_x4167_: - 239.2 x187 + x1727 <= 0
 c_u_x4168_: - 275.6 x188 + x1728 <= 0
 c_u_x4169_: - 119.6 x189 + x1731 <= 0
 c_u_x4170_: - 176.8 x190 + x1732 <= 0
 c_u_x4171_: - 239.2 x191 + x1733 <= 0
 c_u_x4172_: - 275.6 x192 + x1734 <= 0
 c_u_x4173_: - 119.6 x193 + x1737 <= 0
 c_u_x4174_: - 176.8 x194 + x1738 <= 0
 c_u_x4175_: - 239.2 x195 + x1739 <= 0
 c_u_x4176_: - 275.6 x196 + x1740 <= 0
 c_u_x4177_: - 119.6 x197 + x1743 <= 0
 c_u_x4178_: - 176.8 x198 + x1744 <= 0
 c_u_x4179_: - 239.2 x199 + x1745 <= 0
 c_u_x4180_: - 275.6 x200 + x1746 <= 0
 c_u_x4181_: - 119.6 x201 + x1749 <= 0
 c_u_x4182_: - 176.8 x202 + x1750 <= 0
 c_u_x4183_: - 239.2 x203 + x1751 <= 0
 c_u_x4184_: - 275.6 x204 + x1752 <= 0
 c_u_x4185_: - 119.6 x205 + x1755 <= 0
 c_u_x4186_: - 176.8 x206 + x1756 <= 0
 c_u_x4187_: - 239.2 x207 + x1757 <= 0
 c_u_x4188_: - 275.6 x208 + x1758 <= 0
 c_u_x4189_: - 119.6 x209 + x1761 <= 0
 c_u_x4190_: - 176.8 x210 + x1762 <= 0
 c_u_x4191_: - 239.2 x211 + x1763 <= 0
 c_u_x4192_: - 275.6 x212 + x1764 <= 0
 c_u_x4193_: - 119.6 x213 + x1767 <= 0
 c_u_x4194_: - 176.8 x214 + x1768 <= 0
 c_u_x4195_: - 239.2 x215 + x1769 <= 0
 c_u_x4196_: - 275.6 x216 + x1770 <= 0
 c_u_x4197_: - 119.6 x217 + x1773 <= 0
 c_u_x4198_: - 176.8 x218 + x1774 <= 0
 c_u_x4199_: - 239.2 x219 + x1775 <= 0
 c_u_x4200_: - 275.6 x220 + x1776 <= 0
 c_u_x4201_: - 119.6 x221 + x1779 <= 0
 c_u_x4202_: - 176.8 x222 + x1780 <= 0
 c_u_x4203_: - 239.2 x223 + x1781 <= 0
 c_u_x4204_: - 275.6 x224 + x1782 <= 0
 c_u_x4205_: - 119.6 x225 + x1785 <= 0
 c_u_x4206_: - 176.8 x226 + x1786 <= 0
 c_u_x4207_: - 239.2 x227 + x1787 <= 0
 c_u_x4208_: - 275.6 x228 + x1788 <= 0
 c_u_x4209_: - 119.6 x229 + x1791 <= 0
 c_u_x4210_: - 176.8 x230 + x1792 <= 0
 c_u_x4211_: - 239.2 x231 + x1793 <= 0
 c_u_x4212_: - 275.6 x232 + x1794 <= 0
 c_u_x4213_: - 119.6 x233 + x1797 <= 0
 c_u_x4214_: - 176.8 x234 + x1798 <= 0
 c_u_x4215_: - 239.2 x235 + x1799 <= 0
 c_u_x4216_: - 275.6 x236 + x1800 <= 0
 c_u_x4217_: - 119.6 x237 + x1803 <= 0
 c_u_x4218_: - 176.8 x238 + x1804 <= 0
 c_u_x4219_: - 239.2 x239 + x1805 <= 0
 c_u_x4220_: - 275.6 x240 + x1806 <= 0
 c_u_x4221_: - 119.6 x241 + x1809 <= 0
 c_u_x4222_: - 176.8 x242 + x1810 <= 0
 c_u_x4223_: - 239.2 x243 + x1811 <= 0
 c_u_x4224_: - 275.6 x244 + x1812 <= 0
 c_u_x4225_: - 119.6 x245 + x1815 <= 0
 c_u_x4226_: - 176.8 x246 + x1816 <= 0
 c_u_x4227_: - 239.2 x247 + x1817 <= 0
 c_u_x4228_: - 275.6 x248 + x1818 <= 0
 c_u_x4229_: - 4485 x9 + x1821 <= 0
 c_u_x4230_: - 6630 x10 + x1822 <= 0
 c_u_x4231_: - 8970 x11 + x1823 <= 0
 c_u_x4232_: - 10335 x12 + x1824 <= 0
 c_u_x4233_: - 4485 x13 + x1827 <= 0
 c_u_x4234_: - 6630 x14 + x1828 <= 0
 c_u_x4235_: - 8970 x15 + x1829 <= 0
 c_u_x4236_: - 10335 x16 + x1830 <= 0
 c_u_x4237_: - 4485 x17 + x1833 <= 0
 c_u_x4238_: - 6630 x18 + x1834 <= 0
 c_u_x4239_: - 8970 x19 + x1835 <= 0
 c_u_x4240_: - 10335 x20 + x1836 <= 0
 c_u_x4241_: - 4485 x21 + x1839 <= 0
 c_u_x4242_: - 6630 x22 + x1840 <= 0
 c_u_x4243_: - 8970 x23 + x1841 <= 0
 c_u_x4244_: - 10335 x24 + x1842 <= 0
 c_u_x4245_: - 4485 x25 + x1845 <= 0
 c_u_x4246_: - 6630 x26 + x1846 <= 0
 c_u_x4247_: - 8970 x27 + x1847 <= 0
 c_u_x4248_: - 10335 x28 + x1848 <= 0
 c_u_x4249_: - 4485 x29 + x1851 <= 0
 c_u_x4250_: - 6630 x30 + x1852 <= 0
 c_u_x4251_: - 8970 x31 + x1853 <= 0
 c_u_x4252_: - 10335 x32 + x1854 <= 0
 c_u_x4253_: - 4485 x33 + x1857 <= 0
 c_u_x4254_: - 6630 x34 + x1858 <= 0
 c_u_x4255_: - 8970 x35 + x1859 <= 0
 c_u_x4256_: - 10335 x36 + x1860 <= 0
 c_u_x4257_: - 4485 x37 + x1863 <= 0
 c_u_x4258_: - 6630 x38 + x1864 <= 0
 c_u_x4259_: - 8970 x39 + x1865 <= 0
 c_u_x4260_: - 10335 x40 + x1866 <= 0
 c_u_x4261_: - 4485 x41 + x1869 <= 0
 c_u_x4262_: - 6630 x42 + x1870 <= 0
 c_u_x4263_: - 8970 x43 + x1871 <= 0
 c_u_x4264_: - 10335 x44 + x1872 <= 0
 c_u_x4265_: - 4485 x45 + x1875 <= 0
 c_u_x4266_: - 6630 x46 + x1876 <= 0
 c_u_x4267_: - 8970 x47 + x1877 <= 0
 c_u_x4268_: - 10335 x48 + x1878 <= 0
 c_u_x4269_: - 4485 x49 + x1881 <= 0
 c_u_x4270_: - 6630 x50 + x1882 <= 0
 c_u_x4271_: - 8970 x51 + x1883 <= 0
 c_u_x4272_: - 10335 x52 + x1884 <= 0
 c_u_x4273_: - 4485 x53 + x1887 <= 0
 c_u_x4274_: - 6630 x54 + x1888 <= 0
 c_u_x4275_: - 8970 x55 + x1889 <= 0
 c_u_x4276_: - 10335 x56 + x1890 <= 0
 c_u_x4277_: - 4485 x57 + x1893 <= 0
 c_u_x4278_: - 6630 x58 + x1894 <= 0
 c_u_x4279_: - 8970 x59 + x1895 <= 0
 c_u_x4280_: - 10335 x60 + x1896 <= 0
 c_u_x4281_: - 4485 x61 + x1899 <= 0
 c_u_x4282_: - 6630 x62 + x1900 <= 0
 c_u_x4283_: - 8970 x63 + x1901 <= 0
 c_u_x4284_: - 10335 x64 + x1902 <= 0
 c_u_x4285_: - 4485 x65 + x1905 <= 0
 c_u_x4286_: - 6630 x66 + x1906 <= 0
 c_u_x4287_: - 8970 x67 + x1907 <= 0
 c_u_x4288_: - 10335 x68 + x1908 <= 0
 c_u_x4289_: - 4485 x69 + x1911 <= 0
 c_u_x4290_: - 6630 x70 + x1912 <= 0
 c_u_x4291_: - 8970 x71 + x1913 <= 0
 c_u_x4292_: - 10335 x72 + x1914 <= 0
 c_u_x4293_: - 4485 x73 + x1917 <= 0
 c_u_x4294_: - 6630 x74 + x1918 <= 0
 c_u_x4295_: - 8970 x75 + x1919 <= 0
 c_u_x4296_: - 10335 x76 + x1920 <= 0
 c_u_x4297_: - 4485 x77 + x1923 <= 0
 c_u_x4298_: - 6630 x78 + x1924 <= 0
 c_u_x4299_: - 8970 x79 + x1925 <= 0
 c_u_x4300_: - 10335 x80 + x1926 <= 0
 c_u_x4301_: - 4485 x81 + x1929 <= 0
 c_u_x4302_: - 6630 x82 + x1930 <= 0
 c_u_x4303_: - 8970 x83 + x1931 <= 0
 c_u_x4304_: - 10335 x84 + x1932 <= 0
 c_u_x4305_: - 4485 x85 + x1935 <= 0
 c_u_x4306_: - 6630 x86 + x1936 <= 0
 c_u_x4307_: - 8970 x87 + x1937 <= 0
 c_u_x4308_: - 10335 x88 + x1938 <= 0
 c_u_x4309_: - 119.6 x89 + x1941 <= 0
 c_u_x4310_: - 176.8 x90 + x1942 <= 0
 c_u_x4311_: - 239.2 x91 + x1943 <= 0
 c_u_x4312_: - 275.6 x92 + x1944 <= 0
 c_u_x4313_: - 119.6 x93 + x1947 <= 0
 c_u_x4314_: - 176.8 x94 + x1948 <= 0
 c_u_x4315_: - 239.2 x95 + x1949 <= 0
 c_u_x4316_: - 275.6 x96 + x1950 <= 0
 c_u_x4317_: - 119.6 x97 + x1953 <= 0
 c_u_x4318_: - 176.8 x98 + x1954 <= 0
 c_u_x4319_: - 239.2 x99 + x1955 <= 0
 c_u_x4320_: - 275.6 x100 + x1956 <= 0
 c_u_x4321_: - 119.6 x101 + x1959 <= 0
 c_u_x4322_: - 176.8 x102 + x1960 <= 0
 c_u_x4323_: - 239.2 x103 + x1961 <= 0
 c_u_x4324_: - 275.6 x104 + x1962 <= 0
 c_u_x4325_: - 119.6 x105 + x1965 <= 0
 c_u_x4326_: - 176.8 x106 + x1966 <= 0
 c_u_x4327_: - 239.2 x107 + x1967 <= 0
 c_u_x4328_: - 275.6 x108 + x1968 <= 0
 c_u_x4329_: - 119.6 x109 + x1971 <= 0
 c_u_x4330_: - 176.8 x110 + x1972 <= 0
 c_u_x4331_: - 239.2 x111 + x1973 <= 0
 c_u_x4332_: - 275.6 x112 + x1974 <= 0
 c_u_x4333_: - 119.6 x113 + x1977 <= 0
 c_u_x4334_: - 176.8 x114 + x1978 <= 0
 c_u_x4335_: - 239.2 x115 + x1979 <= 0
 c_u_x4336_: - 275.6 x116 + x1980 <= 0
 c_u_x4337_: - 119.6 x117 + x1983 <= 0
 c_u_x4338_: - 176.8 x118 + x1984 <= 0
 c_u_x4339_: - 239.2 x119 + x1985 <= 0
 c_u_x4340_: - 275.6 x120 + x1986 <= 0
 c_u_x4341_: - 119.6 x121 + x1989 <= 0
 c_u_x4342_: - 176.8 x122 + x1990 <= 0
 c_u_x4343_: - 239.2 x123 + x1991 <= 0
 c_u_x4344_: - 275.6 x124 + x1992 <= 0
 c_u_x4345_: - 119.6 x125 + x1995 <= 0
 c_u_x4346_: - 176.8 x126 + x1996 <= 0
 c_u_x4347_: - 239.2 x127 + x1997 <= 0
 c_u_x4348_: - 275.6 x128 + x1998 <= 0
 c_u_x4349_: - 119.6 x129 + x2001 <= 0
 c_u_x4350_: - 176.8 x130 + x2002 <= 0
 c_u_x4351_: - 239.2 x131 + x2003 <= 0
 c_u_x4352_: - 275.6 x132 + x2004 <= 0
 c_u_x4353_: - 119.6 x133 + x2007 <= 0
 c_u_x4354_: - 176.8 x134 + x2008 <= 0
 c_u_x4355_: - 239.2 x135 + x2009 <= 0
 c_u_x4356_: - 275.6 x136 + x2010 <= 0
 c_u_x4357_: - 119.6 x137 + x2013 <= 0
 c_u_x4358_: - 176.8 x138 + x2014 <= 0
 c_u_x4359_: - 239.2 x139 + x2015 <= 0
 c_u_x4360_: - 275.6 x140 + x2016 <= 0
 c_u_x4361_: - 119.6 x141 + x2019 <= 0
 c_u_x4362_: - 176.8 x142 + x2020 <= 0
 c_u_x4363_: - 239.2 x143 + x2021 <= 0
 c_u_x4364_: - 275.6 x144 + x2022 <= 0
 c_u_x4365_: - 119.6 x145 + x2025 <= 0
 c_u_x4366_: - 176.8 x146 + x2026 <= 0
 c_u_x4367_: - 239.2 x147 + x2027 <= 0
 c_u_x4368_: - 275.6 x148 + x2028 <= 0
 c_u_x4369_: - 119.6 x149 + x2031 <= 0
 c_u_x4370_: - 176.8 x150 + x2032 <= 0
 c_u_x4371_: - 239.2 x151 + x2033 <= 0
 c_u_x4372_: - 275.6 x152 + x2034 <= 0
 c_u_x4373_: - 119.6 x153 + x2037 <= 0
 c_u_x4374_: - 176.8 x154 + x2038 <= 0
 c_u_x4375_: - 239.2 x155 + x2039 <= 0
 c_u_x4376_: - 275.6 x156 + x2040 <= 0
 c_u_x4377_: - 119.6 x157 + x2043 <= 0
 c_u_x4378_: - 176.8 x158 + x2044 <= 0
 c_u_x4379_: - 239.2 x159 + x2045 <= 0
 c_u_x4380_: - 275.6 x160 + x2046 <= 0
 c_u_x4381_: - 4485 x161 + x2049 <= 0
 c_u_x4382_: - 6630 x162 + x2050 <= 0
 c_u_x4383_: - 8970 x163 + x2051 <= 0
 c_u_x4384_: - 10335 x164 + x2052 <= 0
 c_u_x4385_: - 4485 x165 + x2055 <= 0
 c_u_x4386_: - 6630 x166 + x2056 <= 0
 c_u_x4387_: - 8970 x167 + x2057 <= 0
 c_u_x4388_: - 10335 x168 + x2058 <= 0
 c_u_x4389_: - 4485 x169 + x2061 <= 0
 c_u_x4390_: - 6630 x170 + x2062 <= 0
 c_u_x4391_: - 8970 x171 + x2063 <= 0
 c_u_x4392_: - 10335 x172 + x2064 <= 0
 c_u_x4393_: - 4485 x173 + x2067 <= 0
 c_u_x4394_: - 6630 x174 + x2068 <= 0
 c_u_x4395_: - 8970 x175 + x2069 <= 0
 c_u_x4396_: - 10335 x176 + x2070 <= 0
 c_u_x4397_: - 4485 x177 + x2073 <= 0
 c_u_x4398_: - 6630 x178 + x2074 <= 0
 c_u_x4399_: - 8970 x179 + x2075 <= 0
 c_u_x4400_: - 10335 x180 + x2076 <= 0
 c_u_x4401_: - 4485 x181 + x2079 <= 0
 c_u_x4402_: - 6630 x182 + x2080 <= 0
 c_u_x4403_: - 8970 x183 + x2081 <= 0
 c_u_x4404_: - 10335 x184 + x2082 <= 0
 c_u_x4405_: - 119.6 x185 + x2085 <= 0
 c_u_x4406_: - 176.8 x186 + x2086 <= 0
 c_u_x4407_: - 239.2 x187 + x2087 <= 0
 c_u_x4408_: - 275.6 x188 + x2088 <= 0
 c_u_x4409_: - 119.6 x189 + x2091 <= 0
 c_u_x4410_: - 176.8 x190 + x2092 <= 0
 c_u_x4411_: - 239.2 x191 + x2093 <= 0
 c_u_x4412_: - 275.6 x192 + x2094 <= 0
 c_u_x4413_: - 119.6 x193 + x2097 <= 0
 c_u_x4414_: - 176.8 x194 + x2098 <= 0
 c_u_x4415_: - 239.2 x195 + x2099 <= 0
 c_u_x4416_: - 275.6 x196 + x2100 <= 0
 c_u_x4417_: - 119.6 x197 + x2103 <= 0
 c_u_x4418_: - 176.8 x198 + x2104 <= 0
 c_u_x4419_: - 239.2 x199 + x2105 <= 0
 c_u_x4420_: - 275.6 x200 + x2106 <= 0
 c_u_x4421_: - 119.6 x201 + x2109 <= 0
 c_u_x4422_: - 176.8 x202 + x2110 <= 0
 c_u_x4423_: - 239.2 x203 + x2111 <= 0
 c_u_x4424_: - 275.6 x204 + x2112 <= 0
 c_u_x4425_: - 119.6 x205 + x2115 <= 0
 c_u_x4426_: - 176.8 x206 + x2116 <= 0
 c_u_x4427_: - 239.2 x207 + x2117 <= 0
 c_u_x4428_: - 275.6 x208 + x2118 <= 0
 c_u_x4429_: - 119.6 x209 + x2121 <= 0
 c_u_x4430_: - 176.8 x210 + x2122 <= 0
 c_u_x4431_: - 239.2 x211 + x2123 <= 0
 c_u_x4432_: - 275.6 x212 + x2124 <= 0
 c_u_x4433_: - 119.6 x213 + x2127 <= 0
 c_u_x4434_: - 176.8 x214 + x2128 <= 0
 c_u_x4435_: - 239.2 x215 + x2129 <= 0
 c_u_x4436_: - 275.6 x216 + x2130 <= 0
 c_u_x4437_: - 119.6 x217 + x2133 <= 0
 c_u_x4438_: - 176.8 x218 + x2134 <= 0
 c_u_x4439_: - 239.2 x219 + x2135 <= 0
 c_u_x4440_: - 275.6 x220 + x2136 <= 0
 c_u_x4441_: - 119.6 x221 + x2139 <= 0
 c_u_x4442_: - 176.8 x222 + x2140 <= 0
 c_u_x4443_: - 239.2 x223 + x2141 <= 0
 c_u_x4444_: - 275.6 x224 + x2142 <= 0
 c_u_x4445_: - 119.6 x225 + x2145 <= 0
 c_u_x4446_: - 176.8 x226 + x2146 <= 0
 c_u_x4447_: - 239.2 x227 + x2147 <= 0
 c_u_x4448_: - 275.6 x228 + x2148 <= 0
 c_u_x4449_: - 119.6 x229 + x2151 <= 0
 c_u_x4450_: - 176.8 x230 + x2152 <= 0
 c_u_x4451_: - 239.2 x231 + x2153 <= 0
 c_u_x4452_: - 275.6 x232 + x2154 <= 0
 c_u_x4453_: - 119.6 x233 + x2157 <= 0
 c_u_x4454_: - 176.8 x234 + x2158 <= 0
 c_u_x4455_: - 239.2 x235 + x2159 <= 0
 c_u_x4456_: - 275.6 x236 + x2160 <= 0
 c_u_x4457_: - 119.6 x237 + x2163 <= 0
 c_u_x4458_: - 176.8 x238 + x2164 <= 0
 c_u_x4459_: - 239.2 x239 + x2165 <= 0
 c_u_x4460_: - 275.6 x240 + x2166 <= 0
 c_u_x4461_: - 119.6 x241 + x2169 <= 0
 c_u_x4462_: - 176.8 x242 + x2170 <= 0
 c_u_x4463_: - 239.2 x243 + x2171 <= 0
 c_u_x4464_: - 275.6 x244 + x2172 <= 0
 c_u_x4465_: - 119.6 x245 + x2175 <= 0
 c_u_x4466_: - 176.8 x246 + x2176 <= 0
 c_u_x4467_: - 239.2 x247 + x2177 <= 0
 c_u_x4468_: - 275.6 x248 + x2178 <= 0
 c_u_x4469_: - 4485 x9 - x1461 <= 0
 c_u_x4470_: - 6630 x10 - x1462 <= 0
 c_u_x4471_: - 8970 x11 - x1463 <= 0
 c_u_x4472_: - 10335 x12 - x1464 <= 0
 c_u_x4473_: - 4485 x13 - x1467 <= 0
 c_u_x4474_: - 6630 x14 - x1468 <= 0
 c_u_x4475_: - 8970 x15 - x1469 <= 0
 c_u_x4476_: - 10335 x16 - x1470 <= 0
 c_u_x4477_: - 4485 x17 - x1473 <= 0
 c_u_x4478_: - 6630 x18 - x1474 <= 0
 c_u_x4479_: - 8970 x19 - x1475 <= 0
 c_u_x4480_: - 10335 x20 - x1476 <= 0
 c_u_x4481_: - 4485 x21 - x1479 <= 0
 c_u_x4482_: - 6630 x22 - x1480 <= 0
 c_u_x4483_: - 8970 x23 - x1481 <= 0
 c_u_x4484_: - 10335 x24 - x1482 <= 0
 c_u_x4485_: - 4485 x25 - x1485 <= 0
 c_u_x4486_: - 6630 x26 - x1486 <= 0
 c_u_x4487_: - 8970 x27 - x1487 <= 0
 c_u_x4488_: - 10335 x28 - x1488 <= 0
 c_u_x4489_: - 4485 x29 - x1491 <= 0
 c_u_x4490_: - 6630 x30 - x1492 <= 0
 c_u_x4491_: - 8970 x31 - x1493 <= 0
 c_u_x4492_: - 10335 x32 - x1494 <= 0
 c_u_x4493_: - 4485 x33 - x1497 <= 0
 c_u_x4494_: - 6630 x34 - x1498 <= 0
 c_u_x4495_: - 8970 x35 - x1499 <= 0
 c_u_x4496_: - 10335 x36 - x1500 <= 0
 c_u_x4497_: - 4485 x37 - x1503 <= 0
 c_u_x4498_: - 6630 x38 - x1504 <= 0
 c_u_x4499_: - 8970 x39 - x1505 <= 0
 c_u_x4500_: - 10335 x40 - x1506 <= 0
 c_u_x4501_: - 4485 x41 - x1509 <= 0
 c_u_x4502_: - 6630 x42 - x1510 <= 0
 c_u_x4503_: - 8970 x43 - x1511 <= 0
 c_u_x4504_: - 10335 x44 - x1512 <= 0
 c_u_x4505_: - 4485 x45 - x1515 <= 0
 c_u_x4506_: - 6630 x46 - x1516 <= 0
 c_u_x4507_: - 8970 x47 - x1517 <= 0
 c_u_x4508_: - 10335 x48 - x1518 <= 0
 c_u_x4509_: - 4485 x49 - x1521 <= 0
 c_u_x4510_: - 6630 x50 - x1522 <= 0
 c_u_x4511_: - 8970 x51 - x1523 <= 0
 c_u_x4512_: - 10335 x52 - x1524 <= 0
 c_u_x4513_: - 4485 x53 - x1527 <= 0
 c_u_x4514_: - 6630 x54 - x1528 <= 0
 c_u_x4515_: - 8970 x55 - x1529 <= 0
 c_u_x4516_: - 10335 x56 - x1530 <= 0
 c_u_x4517_: - 4485 x57 - x1533 <= 0
 c_u_x4518_: - 6630 x58 - x1534 <= 0
 c_u_x4519_: - 8970 x59 - x1535 <= 0
 c_u_x4520_: - 10335 x60 - x1536 <= 0
 c_u_x4521_: - 4485 x61 - x1539 <= 0
 c_u_x4522_: - 6630 x62 - x1540 <= 0
 c_u_x4523_: - 8970 x63 - x1541 <= 0
 c_u_x4524_: - 10335 x64 - x1542 <= 0
 c_u_x4525_: - 4485 x65 - x1545 <= 0
 c_u_x4526_: - 6630 x66 - x1546 <= 0
 c_u_x4527_: - 8970 x67 - x1547 <= 0
 c_u_x4528_: - 10335 x68 - x1548 <= 0
 c_u_x4529_: - 4485 x69 - x1551 <= 0
 c_u_x4530_: - 6630 x70 - x1552 <= 0
 c_u_x4531_: - 8970 x71 - x1553 <= 0
 c_u_x4532_: - 10335 x72 - x1554 <= 0
 c_u_x4533_: - 4485 x73 - x1557 <= 0
 c_u_x4534_: - 6630 x74 - x1558 <= 0
 c_u_x4535_: - 8970 x75 - x1559 <= 0
 c_u_x4536_: - 10335 x76 - x1560 <= 0
 c_u_x4537_: - 4485 x77 - x1563 <= 0
 c_u_x4538_: - 6630 x78 - x1564 <= 0
 c_u_x4539_: - 8970 x79 - x1565 <= 0
 c_u_x4540_: - 10335 x80 - x1566 <= 0
 c_u_x4541_: - 4485 x81 - x1569 <= 0
 c_u_x4542_: - 6630 x82 - x1570 <= 0
 c_u_x4543_: - 8970 x83 - x1571 <= 0
 c_u_x4544_: - 10335 x84 - x1572 <= 0
 c_u_x4545_: - 4485 x85 - x1575 <= 0
 c_u_x4546_: - 6630 x86 - x1576 <= 0
 c_u_x4547_: - 8970 x87 - x1577 <= 0
 c_u_x4548_: - 10335 x88 - x1578 <= 0
 c_u_x4549_: - 119.6 x89 - x1581 <= 0
 c_u_x4550_: - 176.8 x90 - x1582 <= 0
 c_u_x4551_: - 239.2 x91 - x1583 <= 0
 c_u_x4552_: - 275.6 x92 - x1584 <= 0
 c_u_x4553_: - 119.6 x93 - x1587 <= 0
 c_u_x4554_: - 176.8 x94 - x1588 <= 0
 c_u_x4555_: - 239.2 x95 - x1589 <= 0
 c_u_x4556_: - 275.6 x96 - x1590 <= 0
 c_u_x4557_: - 119.6 x97 - x1593 <= 0
 c_u_x4558_: - 176.8 x98 - x1594 <= 0
 c_u_x4559_: - 239.2 x99 - x1595 <= 0
 c_u_x4560_: - 275.6 x100 - x1596 <= 0
 c_u_x4561_: - 119.6 x101 - x1599 <= 0
 c_u_x4562_: - 176.8 x102 - x1600 <= 0
 c_u_x4563_: - 239.2 x103 - x1601 <= 0
 c_u_x4564_: - 275.6 x104 - x1602 <= 0
 c_u_x4565_: - 119.6 x105 - x1605 <= 0
 c_u_x4566_: - 176.8 x106 - x1606 <= 0
 c_u_x4567_: - 239.2 x107 - x1607 <= 0
 c_u_x4568_: - 275.6 x108 - x1608 <= 0
 c_u_x4569_: - 119.6 x109 - x1611 <= 0
 c_u_x4570_: - 176.8 x110 - x1612 <= 0
 c_u_x4571_: - 239.2 x111 - x1613 <= 0
 c_u_x4572_: - 275.6 x112 - x1614 <= 0
 c_u_x4573_: - 119.6 x113 - x1617 <= 0
 c_u_x4574_: - 176.8 x114 - x1618 <= 0
 c_u_x4575_: - 239.2 x115 - x1619 <= 0
 c_u_x4576_: - 275.6 x116 - x1620 <= 0
 c_u_x4577_: - 119.6 x117 - x1623 <= 0
 c_u_x4578_: - 176.8 x118 - x1624 <= 0
 c_u_x4579_: - 239.2 x119 - x1625 <= 0
 c_u_x4580_: - 275.6 x120 - x1626 <= 0
 c_u_x4581_: - 119.6 x121 - x1629 <= 0
 c_u_x4582_: - 176.8 x122 - x1630 <= 0
 c_u_x4583_: - 239.2 x123 - x1631 <= 0
 c_u_x4584_: - 275.6 x124 - x1632 <= 0
 c_u_x4585_: - 119.6 x125 - x1635 <= 0
 c_u_x4586_: - 176.8 x126 - x1636 <= 0
 c_u_x4587_: - 239.2 x127 - x1637 <= 0
 c_u_x4588_: - 275.6 x128 - x1638 <= 0
 c_u_x4589_: - 119.6 x129 - x1641 <= 0
 c_u_x4590_: - 176.8 x130 - x1642 <= 0
 c_u_x4591_: - 239.2 x131 - x1643 <= 0
 c_u_x4592_: - 275.6 x132 - x1644 <= 0
 c_u_x4593_: - 119.6 x133 - x1647 <= 0
 c_u_x4594_: - 176.8 x134 - x1648 <= 0
 c_u_x4595_: - 239.2 x135 - x1649 <= 0
 c_u_x4596_: - 275.6 x136 - x1650 <= 0
 c_u_x4597_: - 119.6 x137 - x1653 <= 0
 c_u_x4598_: - 176.8 x138 - x1654 <= 0
 c_u_x4599_: - 239.2 x139 - x1655 <= 0
 c_u_x4600_: - 275.6 x140 - x1656 <= 0
 c_u_x4601_: - 119.6 x141 - x1659 <= 0
 c_u_x4602_: - 176.8 x142 - x1660 <= 0
 c_u_x4603_: - 239.2 x143 - x1661 <= 0
 c_u_x4604_: - 275.6 x144 - x1662 <= 0
 c_u_x4605_: - 119.6 x145 - x1665 <= 0
 c_u_x4606_: - 176.8 x146 - x1666 <= 0
 c_u_x4607_: - 239.2 x147 - x1667 <= 0
 c_u_x4608_: - 275.6 x148 - x1668 <= 0
 c_u_x4609_: - 119.6 x149 - x1671 <= 0
 c_u_x4610_: - 176.8 x150 - x1672 <= 0
 c_u_x4611_: - 239.2 x151 - x1673 <= 0
 c_u_x4612_: - 275.6 x152 - x1674 <= 0
 c_u_x4613_: - 119.6 x153 - x1677 <= 0
 c_u_x4614_: - 176.8 x154 - x1678 <= 0
 c_u_x4615_: - 239.2 x155 - x1679 <= 0
 c_u_x4616_: - 275.6 x156 - x1680 <= 0
 c_u_x4617_: - 119.6 x157 - x1683 <= 0
 c_u_x4618_: - 176.8 x158 - x1684 <= 0
 c_u_x4619_: - 239.2 x159 - x1685 <= 0
 c_u_x4620_: - 275.6 x160 - x1686 <= 0
 c_u_x4621_: - 4485 x161 - x1689 <= 0
 c_u_x4622_: - 6630 x162 - x1690 <= 0
 c_u_x4623_: - 8970 x163 - x1691 <= 0
 c_u_x4624_: - 10335 x164 - x1692 <= 0
 c_u_x4625_: - 4485 x165 - x1695 <= 0
 c_u_x4626_: - 6630 x166 - x1696 <= 0
 c_u_x4627_: - 8970 x167 - x1697 <= 0
 c_u_x4628_: - 10335 x168 - x1698 <= 0
 c_u_x4629_: - 4485 x169 - x1701 <= 0
 c_u_x4630_: - 6630 x170 - x1702 <= 0
 c_u_x4631_: - 8970 x171 - x1703 <= 0
 c_u_x4632_: - 10335 x172 - x1704 <= 0
 c_u_x4633_: - 4485 x173 - x1707 <= 0
 c_u_x4634_: - 6630 x174 - x1708 <= 0
 c_u_x4635_: - 8970 x175 - x1709 <= 0
 c_u_x4636_: - 10335 x176 - x1710 <= 0
 c_u_x4637_: - 4485 x177 - x1713 <= 0
 c_u_x4638_: - 6630 x178 - x1714 <= 0
 c_u_x4639_: - 8970 x179 - x1715 <= 0
 c_u_x4640_: - 10335 x180 - x1716 <= 0
 c_u_x4641_: - 4485 x181 - x1719 <= 0
 c_u_x4642_: - 6630 x182 - x1720 <= 0
 c_u_x4643_: - 8970 x183 - x1721 <= 0
 c_u_x4644_: - 10335 x184 - x1722 <= 0
 c_u_x4645_: - 119.6 x185 - x1725 <= 0
 c_u_x4646_: - 176.8 x186 - x1726 <= 0
 c_u_x4647_: - 239.2 x187 - x1727 <= 0
 c_u_x4648_: - 275.6 x188 - x1728 <= 0
 c_u_x4649_: - 119.6 x189 - x1731 <= 0
 c_u_x4650_: - 176.8 x190 - x1732 <= 0
 c_u_x4651_: - 239.2 x191 - x1733 <= 0
 c_u_x4652_: - 275.6 x192 - x1734 <= 0
 c_u_x4653_: - 119.6 x193 - x1737 <= 0
 c_u_x4654_: - 176.8 x194 - x1738 <= 0
 c_u_x4655_: - 239.2 x195 - x1739 <= 0
 c_u_x4656_: - 275.6 x196 - x1740 <= 0
 c_u_x4657_: - 119.6 x197 - x1743 <= 0
 c_u_x4658_: - 176.8 x198 - x1744 <= 0
 c_u_x4659_: - 239.2 x199 - x1745 <= 0
 c_u_x4660_: - 275.6 x200 - x1746 <= 0
 c_u_x4661_: - 119.6 x201 - x1749 <= 0
 c_u_x4662_: - 176.8 x202 - x1750 <= 0
 c_u_x4663_: - 239.2 x203 - x1751 <= 0
 c_u_x4664_: - 275.6 x204 - x1752 <= 0
 c_u_x4665_: - 119.6 x205 - x1755 <= 0
 c_u_x4666_: - 176.8 x206 - x1756 <= 0
 c_u_x4667_: - 239.2 x207 - x1757 <= 0
 c_u_x4668_: - 275.6 x208 - x1758 <= 0
 c_u_x4669_: - 119.6 x209 - x1761 <= 0
 c_u_x4670_: - 176.8 x210 - x1762 <= 0
 c_u_x4671_: - 239.2 x211 - x1763 <= 0
 c_u_x4672_: - 275.6 x212 - x1764 <= 0
 c_u_x4673_: - 119.6 x213 - x1767 <= 0
 c_u_x4674_: - 176.8 x214 - x1768 <= 0
 c_u_x4675_: - 239.2 x215 - x1769 <= 0
 c_u_x4676_: - 275.6 x216 - x1770 <= 0
 c_u_x4677_: - 119.6 x217 - x1773 <= 0
 c_u_x4678_: - 176.8 x218 - x1774 <= 0
 c_u_x4679_: - 239.2 x219 - x1775 <= 0
 c_u_x4680_: - 275.6 x220 - x1776 <= 0
 c_u_x4681_: - 119.6 x221 - x1779 <= 0
 c_u_x4682_: - 176.8 x222 - x1780 <= 0
 c_u_x4683_: - 239.2 x223 - x1781 <= 0
 c_u_x4684_: - 275.6 x224 - x1782 <= 0
 c_u_x4685_: - 119.6 x225 - x1785 <= 0
 c_u_x4686_: - 176.8 x226 - x1786 <= 0
 c_u_x4687_: - 239.2 x227 - x1787 <= 0
 c_u_x4688_: - 275.6 x228 - x1788 <= 0
 c_u_x4689_: - 119.6 x229 - x1791 <= 0
 c_u_x4690_: - 176.8 x230 - x1792 <= 0
 c_u_x4691_: - 239.2 x231 - x1793 <= 0
 c_u_x4692_: - 275.6 x232 - x1794 <= 0
 c_u_x4693_: - 119.6 x233 - x1797 <= 0
 c_u_x4694_: - 176.8 x234 - x1798 <= 0
 c_u_x4695_: - 239.2 x235 - x1799 <= 0
 c_u_x4696_: - 275.6 x236 - x1800 <= 0
 c_u_x4697_: - 119.6 x237 - x1803 <= 0
 c_u_x4698_: - 176.8 x238 - x1804 <= 0
 c_u_x4699_: - 239.2 x239 - x1805 <= 0
 c_u_x4700_: - 275.6 x240 - x1806 <= 0
 c_u_x4701_: - 119.6 x241 - x1809 <= 0
 c_u_x4702_: - 176.8 x242 - x1810 <= 0
 c_u_x4703_: - 239.2 x243 - x1811 <= 0
 c_u_x4704_: - 275.6 x244 - x1812 <= 0
 c_u_x4705_: - 119.6 x245 - x1815 <= 0
 c_u_x4706_: - 176.8 x246 - x1816 <= 0
 c_u_x4707_: - 239.2 x247 - x1817 <= 0
 c_u_x4708_: - 275.6 x248 - x1818 <= 0
 c_u_x4709_: - 4485 x9 - x1821 <= 0
 c_u_x4710_: - 6630 x10 - x1822 <= 0
 c_u_x4711_: - 8970 x11 - x1823 <= 0
 c_u_x4712_: - 10335 x12 - x1824 <= 0
 c_u_x4713_: - 4485 x13 - x1827 <= 0
 c_u_x4714_: - 6630 x14 - x1828 <= 0
 c_u_x4715_: - 8970 x15 - x1829 <= 0
 c_u_x4716_: - 10335 x16 - x1830 <= 0
 c_u_x4717_: - 4485 x17 - x1833 <= 0
 c_u_x4718_: - 6630 x18 - x1834 <= 0
 c_u_x4719_: - 8970 x19 - x1835 <= 0
 c_u_x4720_: - 10335 x20 - x1836 <= 0
 c_u_x4721_: - 4485 x21 - x1839 <= 0
 c_u_x4722_: - 6630 x22 - x1840 <= 0
 c_u_x4723_: - 8970 x23 - x1841 <= 0
 c_u_x4724_: - 10335 x24 - x1842 <= 0
 c_u_x4725_: - 4485 x25 - x1845 <= 0
 c_u_x4726_: - 6630 x26 - x1846 <= 0
 c_u_x4727_: - 8970 x27 - x1847 <= 0
 c_u_x4728_: - 10335 x28 - x1848 <= 0
 c_u_x4729_: - 4485 x29 - x1851 <= 0
 c_u_x4730_: - 6630 x30 - x1852 <= 0
 c_u_x4731_: - 8970 x31 - x1853 <= 0
 c_u_x4732_: - 10335 x32 - x1854 <= 0
 c_u_x4733_: - 4485 x33 - x1857 <= 0
 c_u_x4734_: - 6630 x34 - x1858 <= 0
 c_u_x4735_: - 8970 x35 - x1859 <= 0
 c_u_x4736_: - 10335 x36 - x1860 <= 0
 c_u_x4737_: - 4485 x37 - x1863 <= 0
 c_u_x4738_: - 6630 x38 - x1864 <= 0
 c_u_x4739_: - 8970 x39 - x1865 <= 0
 c_u_x4740_: - 10335 x40 - x1866 <= 0
 c_u_x4741_: - 4485 x41 - x1869 <= 0
 c_u_x4742_: - 6630 x42 - x1870 <= 0
 c_u_x4743_: - 8970 x43 - x1871 <= 0
 c_u_x4744_: - 10335 x44 - x1872 <= 0
 c_u_x4745_: - 4485 x45 - x1875 <= 0
 c_u_x4746_: - 6630 x46 - x1876 <= 0
 c_u_x4747_: - 8970 x47 - x1877 <= 0
 c_u_x4748_: - 10335 x48 - x1878 <= 0
 c_u_x4749_: - 4485 x49 - x1881 <= 0
 c_u_x4750_: - 6630 x50 - x1882 <= 0
 c_u_x4751_: - 8970 x51 - x1883 <= 0
 c_u_x4752_: - 10335 x52 - x1884 <= 0
 c_u_x4753_: - 4485 x53 - x1887 <= 0
 c_u_x4754_: - 6630 x54 - x1888 <= 0
 c_u_x4755_: - 8970 x55 - x1889 <= 0
 c_u_x4756_: - 10335 x56 - x1890 <= 0
 c_u_x4757_: - 4485 x57 - x1893 <= 0
 c_u_x4758_: - 6630 x58 - x1894 <= 0
 c_u_x4759_: - 8970 x59 - x1895 <= 0
 c_u_x4760_: - 10335 x60 - x1896 <= 0
 c_u_x4761_: - 4485 x61 - x1899 <= 0
 c_u_x4762_: - 6630 x62 - x1900 <= 0
 c_u_x4763_: - 8970 x63 - x1901 <= 0
 c_u_x4764_: - 10335 x64 - x1902 <= 0
 c_u_x4765_: - 4485 x65 - x1905 <= 0
 c_u_x4766_: - 6630 x66 - x1906 <= 0
 c_u_x4767_: - 8970 x67 - x1907 <= 0
 c_u_x4768_: - 10335 x68 - x1908 <= 0
 c_u_x4769_: - 4485 x69 - x1911 <= 0
 c_u_x4770_: - 6630 x70 - x1912 <= 0
 c_u_x4771_: - 8970 x71 - x1913 <= 0
 c_u_x4772_: - 10335 x72 - x1914 <= 0
 c_u_x4773_: - 4485 x73 - x1917 <= 0
 c_u_x4774_: - 6630 x74 - x1918 <= 0
 c_u_x4775_: - 8970 x75 - x1919 <= 0
 c_u_x4776_: - 10335 x76 - x1920 <= 0
 c_u_x4777_: - 4485 x77 - x1923 <= 0
 c_u_x4778_: - 6630 x78 - x1924 <= 0
 c_u_x4779_: - 8970 x79 - x1925 <= 0
 c_u_x4780_: - 10335 x80 - x1926 <= 0
 c_u_x4781_: - 4485 x81 - x1929 <= 0
 c_u_x4782_: - 6630 x82 - x1930 <= 0
 c_u_x4783_: - 8970 x83 - x1931 <= 0
 c_u_x4784_: - 10335 x84 - x1932 <= 0
 c_u_x4785_: - 4485 x85 - x1935 <= 0
 c_u_x4786_: - 6630 x86 - x1936 <= 0
 c_u_x4787_: - 8970 x87 - x1937 <= 0
 c_u_x4788_: - 10335 x88 - x1938 <= 0
 c_u_x4789_: - 119.6 x89 - x1941 <= 0
 c_u_x4790_: - 176.8 x90 - x1942 <= 0
 c_u_x4791_: - 239.2 x91 - x1943 <= 0
 c_u_x4792_: - 275.6 x92 - x1944 <= 0
 c_u_x4793_: - 119.6 x93 - x1947 <= 0
 c_u_x4794_: - 176.8 x94 - x1948 <= 0
 c_u_x4795_: - 239.2 x95 - x1949 <= 0
 c_u_x4796_: - 275.6 x96 - x1950 <= 0
 c_u_x4797_: - 119.6 x97 - x1953 <= 0
 c_u_x4798_: - 176.8 x98 - x1954 <= 0
 c_u_x4799_: - 239.2 x99 - x1955 <= 0
 c_u_x4800_: - 275.6 x100 - x1956 <= 0
 c_u_x4801_: - 119.6 x101 - x1959 <= 0
 c_u_x4802_: - 176.8 x102 - x1960 <= 0
 c_u_x4803_: - 239.2 x103 - x1961 <= 0
 c_u_x4804_: - 275.6 x104 - x1962 <= 0
 c_u_x4805_: - 119.6 x105 - x1965 <= 0
 c_u_x4806_: - 176.8 x106 - x1966 <= 0
 c_u_x4807_: - 239.2 x107 - x1967 <= 0
 c_u_x4808_: - 275.6 x108 - x1968 <= 0
 c_u_x4809_: - 119.6 x109 - x1971 <= 0
 c_u_x4810_: - 176.8 x110 - x1972 <= 0
 c_u_x4811_: - 239.2 x111 - x1973 <= 0
 c_u_x4812_: - 275.6 x112 - x1974 <= 0
 c_u_x4813_: - 119.6 x113 - x1977 <= 0
 c_u_x4814_: - 176.8 x114 - x1978 <= 0
 c_u_x4815_: - 239.2 x115 - x1979 <= 0
 c_u_x4816_: - 275.6 x116 - x1980 <= 0
 c_u_x4817_: - 119.6 x117 - x1983 <= 0
 c_u_x4818_: - 176.8 x118 - x1984 <= 0
 c_u_x4819_: - 239.2 x119 - x1985 <= 0
 c_u_x4820_: - 275.6 x120 - x1986 <= 0
 c_u_x4821_: - 119.6 x121 - x1989 <= 0
 c_u_x4822_: - 176.8 x122 - x1990 <= 0
 c_u_x4823_: - 239.2 x123 - x1991 <= 0
 c_u_x4824_: - 275.6 x124 - x1992 <= 0
 c_u_x4825_: - 119.6 x125 - x1995 <= 0
 c_u_x4826_: - 176.8 x126 - x1996 <= 0
 c_u_x4827_: - 239.2 x127 - x1997 <= 0
 c_u_x4828_: - 275.6 x128 - x1998 <= 0
 c_u_x4829_: - 119.6 x129 - x2001 <= 0
 c_u_x4830_: - 176.8 x130 - x2002 <= 0
 c_u_x4831_: - 239.2 x131 - x2003 <= 0
 c_u_x4832_: - 275.6 x132 - x2004 <= 0
 c_u_x4833_: - 119.6 x133 - x2007 <= 0
 c_u_x4834_: - 176.8 x134 - x2008 <= 0
 c_u_x4835_: - 239.2 x135 - x2009 <= 0
 c_u_x4836_: - 275.6 x136 - x2010 <= 0
 c_u_x4837_: - 119.6 x137 - x2013 <= 0
 c_u_x4838_: - 176.8 x138 - x2014 <= 0
 c_u_x4839_: - 239.2 x139 - x2015 <= 0
 c_u_x4840_: - 275.6 x140 - x2016 <= 0
 c_u_x4841_: - 119.6 x141 - x2019 <= 0
 c_u_x4842_: - 176.8 x142 - x2020 <= 0
 c_u_x4843_: - 239.2 x143 - x2021 <= 0
 c_u_x4844_: - 275.6 x144 - x2022 <= 0
 c_u_x4845_: - 119.6 x145 - x2025 <= 0
 c_u_x4846_: - 176.8 x146 - x2026 <= 0
 c_u_x4847_: - 239.2 x147 - x2027 <= 0
 c_u_x4848_: - 275.6 x148 - x2028 <= 0
 c_u_x4849_: - 119.6 x149 - x2031 <= 0
 c_u_x4850_: - 176.8 x150 - x2032 <= 0
 c_u_x4851_: - 239.2 x151 - x2033 <= 0
 c_u_x4852_: - 275.6 x152 - x2034 <= 0
 c_u_x4853_: - 119.6 x153 - x2037 <= 0
 c_u_x4854_: - 176.8 x154 - x2038 <= 0
 c_u_x4855_: - 239.2 x155 - x2039 <= 0
 c_u_x4856_: - 275.6 x156 - x2040 <= 0
 c_u_x4857_: - 119.6 x157 - x2043 <= 0
 c_u_x4858_: - 176.8 x158 - x2044 <= 0
 c_u_x4859_: - 239.2 x159 - x2045 <= 0
 c_u_x4860_: - 275.6 x160 - x2046 <= 0
 c_u_x4861_: - 4485 x161 - x2049 <= 0
 c_u_x4862_: - 6630 x162 - x2050 <= 0
 c_u_x4863_: - 8970 x163 - x2051 <= 0
 c_u_x4864_: - 10335 x164 - x2052 <= 0
 c_u_x4865_: - 4485 x165 - x2055 <= 0
 c_u_x4866_: - 6630 x166 - x2056 <= 0
 c_u_x4867_: - 8970 x167 - x2057 <= 0
 c_u_x4868_: - 10335 x168 - x2058 <= 0
 c_u_x4869_: - 4485 x169 - x2061 <= 0
 c_u_x4870_: - 6630 x170 - x2062 <= 0
 c_u_x4871_: - 8970 x171 - x2063 <= 0
 c_u_x4872_: - 10335 x172 - x2064 <= 0
 c_u_x4873_: - 4485 x173 - x2067 <= 0
 c_u_x4874_: - 6630 x174 - x2068 <= 0
 c_u_x4875_: - 8970 x175 - x2069 <= 0
 c_u_x4876_: - 10335 x176 - x2070 <= 0
 c_u_x4877_: - 4485 x177 - x2073 <= 0
 c_u_x4878_: - 6630 x178 - x2074 <= 0
 c_u_x4879_: - 8970 x179 - x2075 <= 0
 c_u_x4880_: - 10335 x180 - x2076 <= 0
 c_u_x4881_: - 4485 x181 - x2079 <= 0
 c_u_x4882_: - 6630 x182 - x2080 <= 0
 c_u_x4883_: - 8970 x183 - x2081 <= 0
 c_u_x4884_: - 10335 x184 - x2082 <= 0
 c_u_x4885_: - 119.6 x185 - x2085 <= 0
 c_u_x4886_: - 176.8 x186 - x2086 <= 0
 c_u_x4887_: - 239.2 x187 - x2087 <= 0
 c_u_x4888_: - 275.6 x188 - x2088 <= 0
 c_u_x4889_: - 119.6 x189 - x2091 <= 0
 c_u_x4890_: - 176.8 x190 - x2092 <= 0
 c_u_x4891_: - 239.2 x191 - x2093 <= 0
 c_u_x4892_: - 275.6 x192 - x2094 <= 0
 c_u_x4893_: - 119.6 x193 - x2097 <= 0
 c_u_x4894_: - 176.8 x194 - x2098 <= 0
 c_u_x4895_: - 239.2 x195 - x2099 <= 0
 c_u_x4896_: - 275.6 x196 - x2100 <= 0
 c_u_x4897_: - 119.6 x197 - x2103 <= 0
 c_u_x4898_: - 176.8 x198 - x2104 <= 0
 c_u_x4899_: - 239.2 x199 - x2105 <= 0
 c_u_x4900_: - 275.6 x200 - x2106 <= 0
 c_u_x4901_: - 119.6 x201 - x2109 <= 0
 c_u_x4902_: - 176.8 x202 - x2110 <= 0
 c_u_x4903_: - 239.2 x203 - x2111 <= 0
 c_u_x4904_: - 275.6 x204 - x2112 <= 0
 c_u_x4905_: - 119.6 x205 - x2115 <= 0
 c_u_x4906_: - 176.8 x206 - x2116 <= 0
 c_u_x4907_: - 239.2 x207 - x2117 <= 0
 c_u_x4908_: - 275.6 x208 - x2118 <= 0
 c_u_x4909_: - 119.6 x209 - x2121 <= 0
 c_u_x4910_: - 176.8 x210 - x2122 <= 0
 c_u_x4911_: - 239.2 x211 - x2123 <= 0
 c_u_x4912_: - 275.6 x212 - x2124 <= 0
 c_u_x4913_: - 119.6 x213 - x2127 <= 0
 c_u_x4914_: - 176.8 x214 - x2128 <= 0
 c_u_x4915_: - 239.2 x215 - x2129 <= 0
 c_u_x4916_: - 275.6 x216 - x2130 <= 0
 c_u_x4917_: - 119.6 x217 - x2133 <= 0
 c_u_x4918_: - 176.8 x218 - x2134 <= 0
 c_u_x4919_: - 239.2 x219 - x2135 <= 0
 c_u_x4920_: - 275.6 x220 - x2136 <= 0
 c_u_x4921_: - 119.6 x221 - x2139 <= 0
 c_u_x4922_: - 176.8 x222 - x2140 <= 0
 c_u_x4923_: - 239.2 x223 - x2141 <= 0
 c_u_x4924_: - 275.6 x224 - x2142 <= 0
 c_u_x4925_: - 119.6 x225 - x2145 <= 0
 c_u_x4926_: - 176.8 x226 - x2146 <= 0
 c_u_x4927_: - 239.2 x227 - x2147 <= 0
 c_u_x4928_: - 275.6 x228 - x2148 <= 0
 c_u_x4929_: - 119.6 x229 - x2151 <= 0
 c_u_x4930_: - 176.8 x230 - x2152 <= 0
 c_u_x4931_: - 239.2 x231 - x2153 <= 0
 c_u_x4932_: - 275.6 x232 - x2154 <= 0
 c_u_x4933_: - 119.6 x233 - x2157 <= 0
 c_u_x4934_: - 176.8 x234 - x2158 <= 0
 c_u_x4935_: - 239.2 x235 - x2159 <= 0
 c_u_x4936_: - 275.6 x236 - x2160 <= 0
 c_u_x4937_: - 119.6 x237 - x2163 <= 0
 c_u_x4938_: - 176.8 x238 - x2164 <= 0
 c_u_x4939_: - 239.2 x239 - x2165 <= 0
 c_u_x4940_: - 275.6 x240 - x2166 <= 0
 c_u_x4941_: - 119.6 x241 - x2169 <= 0
 c_u_x4942_: - 176.8 x242 - x2170 <= 0
 c_u_x4943_: - 239.2 x243 - x2171 <= 0
 c_u_x4944_: - 275.6 x244 - x2172 <= 0
 c_u_x4945_: - 119.6 x245 - x2175 <= 0
 c_u_x4946_: - 176.8 x246 - x2176 <= 0
 c_u_x4947_: - 239.2 x247 - x2177 <= 0
 c_u_x4948_: - 275.6 x248 - x2178 <= 0
 c_u_x4949_: - 1.19025e+07 x9 + x257 - x4950 <= 0
 c_u_x4951_: - 2.601e+07 x10 + x258 - x4952 <= 0
 c_u_x4953_: - 4.761e+07 x11 + x259 - x4954 <= 0
 c_u_x4955_: - 6.32025e+07 x12 + x260 - x4956 <= 0
 c_u_x4957_: - 1.19025e+07 x13 + x261 - x4958 <= 0
 c_u_x4959_: - 2.601e+07 x14 + x262 - x4960 <= 0
 c_u_x4961_: - 4.761e+07 x15 + x263 - x4962 <= 0
 c_u_x4963_: - 6.32025e+07 x16 + x264 - x4964 <= 0
 c_u_x4965_: - 1.19025e+07 x17 + x265 - x4966 <= 0
 c_u_x4967_: - 2.601e+07 x18 + x266 - x4968 <= 0
 c_u_x4969_: - 4.761e+07 x19 + x267 - x4970 <= 0
 c_u_x4971_: - 6.32025e+07 x20 + x268 - x4972 <= 0
 c_u_x4973_: - 1.19025e+07 x21 + x269 - x4974 <= 0
 c_u_x4975_: - 2.601e+07 x22 + x270 - x4976 <= 0
 c_u_x4977_: - 4.761e+07 x23 + x271 - x4978 <= 0
 c_u_x4979_: - 6.32025e+07 x24 + x272 - x4980 <= 0
 c_u_x4981_: - 1.19025e+07 x25 + x273 - x4982 <= 0
 c_u_x4983_: - 2.601e+07 x26 + x274 - x4984 <= 0
 c_u_x4985_: - 4.761e+07 x27 + x275 - x4986 <= 0
 c_u_x4987_: - 6.32025e+07 x28 + x276 - x4988 <= 0
 c_u_x4989_: - 1.19025e+07 x29 + x277 - x4990 <= 0
 c_u_x4991_: - 2.601e+07 x30 + x278 - x4992 <= 0
 c_u_x4993_: - 4.761e+07 x31 + x279 - x4994 <= 0
 c_u_x4995_: - 6.32025e+07 x32 + x280 - x4996 <= 0
 c_u_x4997_: - 1.19025e+07 x33 + x281 - x4998 <= 0
 c_u_x4999_: - 2.601e+07 x34 + x282 - x5000 <= 0
 c_u_x5001_: - 4.761e+07 x35 + x283 - x5002 <= 0
 c_u_x5003_: - 6.32025e+07 x36 + x284 - x5004 <= 0
 c_u_x5005_: - 1.19025e+07 x37 + x285 - x5006 <= 0
 c_u_x5007_: - 2.601e+07 x38 + x286 - x5008 <= 0
 c_u_x5009_: - 4.761e+07 x39 + x287 - x5010 <= 0
 c_u_x5011_: - 6.32025e+07 x40 + x288 - x5012 <= 0
 c_u_x5013_: - 1.19025e+07 x41 + x289 - x5014 <= 0
 c_u_x5015_: - 2.601e+07 x42 + x290 - x5016 <= 0
 c_u_x5017_: - 4.761e+07 x43 + x291 - x5018 <= 0
 c_u_x5019_: - 6.32025e+07 x44 + x292 - x5020 <= 0
 c_u_x5021_: - 1.19025e+07 x45 + x293 - x5022 <= 0
 c_u_x5023_: - 2.601e+07 x46 + x294 - x5024 <= 0
 c_u_x5025_: - 4.761e+07 x47 + x295 - x5026 <= 0
 c_u_x5027_: - 6.32025e+07 x48 + x296 - x5028 <= 0
 c_u_x5029_: - 1.19025e+07 x49 + x297 - x5030 <= 0
 c_u_x5031_: - 2.601e+07 x50 + x298 - x5032 <= 0
 c_u_x5033_: - 4.761e+07 x51 + x299 - x5034 <= 0
 c_u_x5035_: - 6.32025e+07 x52 + x300 - x5036 <= 0
 c_u_x5037_: - 1.19025e+07 x53 + x301 - x5038 <= 0
 c_u_x5039_: - 2.601e+07 x54 + x302 - x5040 <= 0
 c_u_x5041_: - 4.761e+07 x55 + x303 - x5042 <= 0
 c_u_x5043_: - 6.32025e+07 x56 + x304 - x5044 <= 0
 c_u_x5045_: - 1.19025e+07 x57 + x305 - x5046 <= 0
 c_u_x5047_: - 2.601e+07 x58 + x306 - x5048 <= 0
 c_u_x5049_: - 4.761e+07 x59 + x307 - x5050 <= 0
 c_u_x5051_: - 6.32025e+07 x60 + x308 - x5052 <= 0
 c_u_x5053_: - 1.19025e+07 x61 + x309 - x5054 <= 0
 c_u_x5055_: - 2.601e+07 x62 + x310 - x5056 <= 0
 c_u_x5057_: - 4.761e+07 x63 + x311 - x5058 <= 0
 c_u_x5059_: - 6.32025e+07 x64 + x312 - x5060 <= 0
 c_u_x5061_: - 1.19025e+07 x65 + x313 - x5062 <= 0
 c_u_x5063_: - 2.601e+07 x66 + x314 - x5064 <= 0
 c_u_x5065_: - 4.761e+07 x67 + x315 - x5066 <= 0
 c_u_x5067_: - 6.32025e+07 x68 + x316 - x5068 <= 0
 c_u_x5069_: - 1.19025e+07 x69 + x317 - x5070 <= 0
 c_u_x5071_: - 2.601e+07 x70 + x318 - x5072 <= 0
 c_u_x5073_: - 4.761e+07 x71 + x319 - x5074 <= 0
 c_u_x5075_: - 6.32025e+07 x72 + x320 - x5076 <= 0
 c_u_x5077_: - 1.19025e+07 x73 + x321 - x5078 <= 0
 c_u_x5079_: - 2.601e+07 x74 + x322 - x5080 <= 0
 c_u_x5081_: - 4.761e+07 x75 + x323 - x5082 <= 0
 c_u_x5083_: - 6.32025e+07 x76 + x324 - x5084 <= 0
 c_u_x5085_: - 1.19025e+07 x77 + x325 - x5086 <= 0
 c_u_x5087_: - 2.601e+07 x78 + x326 - x5088 <= 0
 c_u_x5089_: - 4.761e+07 x79 + x327 - x5090 <= 0
 c_u_x5091_: - 6.32025e+07 x80 + x328 - x5092 <= 0
 c_u_x5093_: - 1.19025e+07 x81 + x329 - x5094 <= 0
 c_u_x5095_: - 2.601e+07 x82 + x330 - x5096 <= 0
 c_u_x5097_: - 4.761e+07 x83 + x331 - x5098 <= 0
 c_u_x5099_: - 6.32025e+07 x84 + x332 - x5100 <= 0
 c_u_x5101_: - 1.19025e+07 x85 + x333 - x5102 <= 0
 c_u_x5103_: - 2.601e+07 x86 + x334 - x5104 <= 0
 c_u_x5105_: - 4.761e+07 x87 + x335 - x5106 <= 0
 c_u_x5107_: - 6.32025e+07 x88 + x336 - x5108 <= 0
 c_u_x5109_: - 8464 x89 + x337 - x5110 <= 0
 c_u_x5111_: - 18496 x90 + x338 - x5112 <= 0
 c_u_x5113_: - 33856 x91 + x339 - x5114 <= 0
 c_u_x5115_: - 44944 x92 + x340 - x5116 <= 0
 c_u_x5117_: - 8464 x93 + x341 - x5118 <= 0
 c_u_x5119_: - 18496 x94 + x342 - x5120 <= 0
 c_u_x5121_: - 33856 x95 + x343 - x5122 <= 0
 c_u_x5123_: - 44944 x96 + x344 - x5124 <= 0
 c_u_x5125_: - 8464 x97 + x345 - x5126 <= 0
 c_u_x5127_: - 18496 x98 + x346 - x5128 <= 0
 c_u_x5129_: - 33856 x99 + x347 - x5130 <= 0
 c_u_x5131_: - 44944 x100 + x348 - x5132 <= 0
 c_u_x5133_: - 8464 x101 + x349 - x5134 <= 0
 c_u_x5135_: - 18496 x102 + x350 - x5136 <= 0
 c_u_x5137_: - 33856 x103 + x351 - x5138 <= 0
 c_u_x5139_: - 44944 x104 + x352 - x5140 <= 0
 c_u_x5141_: - 8464 x105 + x353 - x5142 <= 0
 c_u_x5143_: - 18496 x106 + x354 - x5144 <= 0
 c_u_x5145_: - 33856 x107 + x355 - x5146 <= 0
 c_u_x5147_: - 44944 x108 + x356 - x5148 <= 0
 c_u_x5149_: - 8464 x109 + x357 - x5150 <= 0
 c_u_x5151_: - 18496 x110 + x358 - x5152 <= 0
 c_u_x5153_: - 33856 x111 + x359 - x5154 <= 0
 c_u_x5155_: - 44944 x112 + x360 - x5156 <= 0
 c_u_x5157_: - 8464 x113 + x361 - x5158 <= 0
 c_u_x5159_: - 18496 x114 + x362 - x5160 <= 0
 c_u_x5161_: - 33856 x115 + x363 - x5162 <= 0
 c_u_x5163_: - 44944 x116 + x364 - x5164 <= 0
 c_u_x5165_: - 8464 x117 + x365 - x5166 <= 0
 c_u_x5167_: - 18496 x118 + x366 - x5168 <= 0
 c_u_x5169_: - 33856 x119 + x367 - x5170 <= 0
 c_u_x5171_: - 44944 x120 + x368 - x5172 <= 0
 c_u_x5173_: - 8464 x121 + x369 - x5174 <= 0
 c_u_x5175_: - 18496 x122 + x370 - x5176 <= 0
 c_u_x5177_: - 33856 x123 + x371 - x5178 <= 0
 c_u_x5179_: - 44944 x124 + x372 - x5180 <= 0
 c_u_x5181_: - 8464 x125 + x373 - x5182 <= 0
 c_u_x5183_: - 18496 x126 + x374 - x5184 <= 0
 c_u_x5185_: - 33856 x127 + x375 - x5186 <= 0
 c_u_x5187_: - 44944 x128 + x376 - x5188 <= 0
 c_u_x5189_: - 8464 x129 + x377 - x5190 <= 0
 c_u_x5191_: - 18496 x130 + x378 - x5192 <= 0
 c_u_x5193_: - 33856 x131 + x379 - x5194 <= 0
 c_u_x5195_: - 44944 x132 + x380 - x5196 <= 0
 c_u_x5197_: - 8464 x133 + x381 - x5198 <= 0
 c_u_x5199_: - 18496 x134 + x382 - x5200 <= 0
 c_u_x5201_: - 33856 x135 + x383 - x5202 <= 0
 c_u_x5203_: - 44944 x136 + x384 - x5204 <= 0
 c_u_x5205_: - 8464 x137 + x385 - x5206 <= 0
 c_u_x5207_: - 18496 x138 + x386 - x5208 <= 0
 c_u_x5209_: - 33856 x139 + x387 - x5210 <= 0
 c_u_x5211_: - 44944 x140 + x388 - x5212 <= 0
 c_u_x5213_: - 8464 x141 + x389 - x5214 <= 0
 c_u_x5215_: - 18496 x142 + x390 - x5216 <= 0
 c_u_x5217_: - 33856 x143 + x391 - x5218 <= 0
 c_u_x5219_: - 44944 x144 + x392 - x5220 <= 0
 c_u_x5221_: - 8464 x145 + x393 - x5222 <= 0
 c_u_x5223_: - 18496 x146 + x394 - x5224 <= 0
 c_u_x5225_: - 33856 x147 + x395 - x5226 <= 0
 c_u_x5227_: - 44944 x148 + x396 - x5228 <= 0
 c_u_x5229_: - 8464 x149 + x397 - x5230 <= 0
 c_u_x5231_: - 18496 x150 + x398 - x5232 <= 0
 c_u_x5233_: - 33856 x151 + x399 - x5234 <= 0
 c_u_x5235_: - 44944 x152 + x400 - x5236 <= 0
 c_u_x5237_: - 8464 x153 + x401 - x5238 <= 0
 c_u_x5239_: - 18496 x154 + x402 - x5240 <= 0
 c_u_x5241_: - 33856 x155 + x403 - x5242 <= 0
 c_u_x5243_: - 44944 x156 + x404 - x5244 <= 0
 c_u_x5245_: - 8464 x157 + x405 - x5246 <= 0
 c_u_x5247_: - 18496 x158 + x406 - x5248 <= 0
 c_u_x5249_: - 33856 x159 + x407 - x5250 <= 0
 c_u_x5251_: - 44944 x160 + x408 - x5252 <= 0
 c_u_x5253_: - 1.19025e+07 x161 + x409 - x5254 <= 0
 c_u_x5255_: - 2.601e+07 x162 + x410 - x5256 <= 0
 c_u_x5257_: - 4.761e+07 x163 + x411 - x5258 <= 0
 c_u_x5259_: - 6.32025e+07 x164 + x412 - x5260 <= 0
 c_u_x5261_: - 1.19025e+07 x165 + x413 - x5262 <= 0
 c_u_x5263_: - 2.601e+07 x166 + x414 - x5264 <= 0
 c_u_x5265_: - 4.761e+07 x167 + x415 - x5266 <= 0
 c_u_x5267_: - 6.32025e+07 x168 + x416 - x5268 <= 0
 c_u_x5269_: - 1.19025e+07 x169 + x417 - x5270 <= 0
 c_u_x5271_: - 2.601e+07 x170 + x418 - x5272 <= 0
 c_u_x5273_: - 4.761e+07 x171 + x419 - x5274 <= 0
 c_u_x5275_: - 6.32025e+07 x172 + x420 - x5276 <= 0
 c_u_x5277_: - 1.19025e+07 x173 + x421 - x5278 <= 0
 c_u_x5279_: - 2.601e+07 x174 + x422 - x5280 <= 0
 c_u_x5281_: - 4.761e+07 x175 + x423 - x5282 <= 0
 c_u_x5283_: - 6.32025e+07 x176 + x424 - x5284 <= 0
 c_u_x5285_: - 1.19025e+07 x177 + x425 - x5286 <= 0
 c_u_x5287_: - 2.601e+07 x178 + x426 - x5288 <= 0
 c_u_x5289_: - 4.761e+07 x179 + x427 - x5290 <= 0
 c_u_x5291_: - 6.32025e+07 x180 + x428 - x5292 <= 0
 c_u_x5293_: - 1.19025e+07 x181 + x429 - x5294 <= 0
 c_u_x5295_: - 2.601e+07 x182 + x430 - x5296 <= 0
 c_u_x5297_: - 4.761e+07 x183 + x431 - x5298 <= 0
 c_u_x5299_: - 6.32025e+07 x184 + x432 - x5300 <= 0
 c_u_x5301_: - 8464 x185 + x433 - x5302 <= 0
 c_u_x5303_: - 18496 x186 + x434 - x5304 <= 0
 c_u_x5305_: - 33856 x187 + x435 - x5306 <= 0
 c_u_x5307_: - 44944 x188 + x436 - x5308 <= 0
 c_u_x5309_: - 8464 x189 + x437 - x5310 <= 0
 c_u_x5311_: - 18496 x190 + x438 - x5312 <= 0
 c_u_x5313_: - 33856 x191 + x439 - x5314 <= 0
 c_u_x5315_: - 44944 x192 + x440 - x5316 <= 0
 c_u_x5317_: - 8464 x193 + x441 - x5318 <= 0
 c_u_x5319_: - 18496 x194 + x442 - x5320 <= 0
 c_u_x5321_: - 33856 x195 + x443 - x5322 <= 0
 c_u_x5323_: - 44944 x196 + x444 - x5324 <= 0
 c_u_x5325_: - 8464 x197 + x445 - x5326 <= 0
 c_u_x5327_: - 18496 x198 + x446 - x5328 <= 0
 c_u_x5329_: - 33856 x199 + x447 - x5330 <= 0
 c_u_x5331_: - 44944 x200 + x448 - x5332 <= 0
 c_u_x5333_: - 8464 x201 + x449 - x5334 <= 0
 c_u_x5335_: - 18496 x202 + x450 - x5336 <= 0
 c_u_x5337_: - 33856 x203 + x451 - x5338 <= 0
 c_u_x5339_: - 44944 x204 + x452 - x5340 <= 0
 c_u_x5341_: - 8464 x205 + x453 - x5342 <= 0
 c_u_x5343_: - 18496 x206 + x454 - x5344 <= 0
 c_u_x5345_: - 33856 x207 + x455 - x5346 <= 0
 c_u_x5347_: - 44944 x208 + x456 - x5348 <= 0
 c_u_x5349_: - 8464 x209 + x457 - x5350 <= 0
 c_u_x5351_: - 18496 x210 + x458 - x5352 <= 0
 c_u_x5353_: - 33856 x211 + x459 - x5354 <= 0
 c_u_x5355_: - 44944 x212 + x460 - x5356 <= 0
 c_u_x5357_: - 8464 x213 + x461 - x5358 <= 0
 c_u_x5359_: - 18496 x214 + x462 - x5360 <= 0
 c_u_x5361_: - 33856 x215 + x463 - x5362 <= 0
 c_u_x5363_: - 44944 x216 + x464 - x5364 <= 0
 c_u_x5365_: - 8464 x217 + x465 - x5366 <= 0
 c_u_x5367_: - 18496 x218 + x466 - x5368 <= 0
 c_u_x5369_: - 33856 x219 + x467 - x5370 <= 0
 c_u_x5371_: - 44944 x220 + x468 - x5372 <= 0
 c_u_x5373_: - 8464 x221 + x469 - x5374 <= 0
 c_u_x5375_: - 18496 x222 + x470 - x5376 <= 0
 c_u_x5377_: - 33856 x223 + x471 - x5378 <= 0
 c_u_x5379_: - 44944 x224 + x472 - x5380 <= 0
 c_u_x5381_: - 8464 x225 + x473 - x5382 <= 0
 c_u_x5383_: - 18496 x226 + x474 - x5384 <= 0
 c_u_x5385_: - 33856 x227 + x475 - x5386 <= 0
 c_u_x5387_: - 44944 x228 + x476 - x5388 <= 0
 c_u_x5389_: - 8464 x229 + x477 - x5390 <= 0
 c_u_x5391_: - 18496 x230 + x478 - x5392 <= 0
 c_u_x5393_: - 33856 x231 + x479 - x5394 <= 0
 c_u_x5395_: - 44944 x232 + x480 - x5396 <= 0
 c_u_x5397_: - 8464 x233 + x481 - x5398 <= 0
 c_u_x5399_: - 18496 x234 + x482 - x5400 <= 0
 c_u_x5401_: - 33856 x235 + x483 - x5402 <= 0
 c_u_x5403_: - 44944 x236 + x484 - x5404 <= 0
 c_u_x5405_: - 8464 x237 + x485 - x5406 <= 0
 c_u_x5407_: - 18496 x238 + x486 - x5408 <= 0
 c_u_x5409_: - 33856 x239 + x487 - x5410 <= 0
 c_u_x5411_: - 44944 x240 + x488 - x5412 <= 0
 c_u_x5413_: - 8464 x241 + x489 - x5414 <= 0
 c_u_x5415_: - 18496 x242 + x490 - x5416 <= 0
 c_u_x5417_: - 33856 x243 + x491 - x5418 <= 0
 c_u_x5419_: - 44944 x244 + x492 - x5420 <= 0
 c_u_x5421_: - 8464 x245 + x493 - x5422 <= 0
 c_u_x5423_: - 18496 x246 + x494 - x5424 <= 0
 c_u_x5425_: - 33856 x247 + x495 - x5426 <= 0
 c_u_x5427_: - 44944 x248 + x496 - x5428 <= 0
 c_u_x5429_: - 1.19025e+07 x9 + x498 - x5430 <= 0
 c_u_x5431_: - 2.601e+07 x10 + x499 - x5432 <= 0
 c_u_x5433_: - 4.761e+07 x11 + x500 - x5434 <= 0
 c_u_x5435_: - 6.32025e+07 x12 + x501 - x5436 <= 0
 c_u_x5437_: - 1.19025e+07 x13 + x502 - x5438 <= 0
 c_u_x5439_: - 2.601e+07 x14 + x503 - x5440 <= 0
 c_u_x5441_: - 4.761e+07 x15 + x504 - x5442 <= 0
 c_u_x5443_: - 6.32025e+07 x16 + x505 - x5444 <= 0
 c_u_x5445_: - 1.19025e+07 x17 + x506 - x5446 <= 0
 c_u_x5447_: - 2.601e+07 x18 + x507 - x5448 <= 0
 c_u_x5449_: - 4.761e+07 x19 + x508 - x5450 <= 0
 c_u_x5451_: - 6.32025e+07 x20 + x509 - x5452 <= 0
 c_u_x5453_: - 1.19025e+07 x21 + x510 - x5454 <= 0
 c_u_x5455_: - 2.601e+07 x22 + x511 - x5456 <= 0
 c_u_x5457_: - 4.761e+07 x23 + x512 - x5458 <= 0
 c_u_x5459_: - 6.32025e+07 x24 + x513 - x5460 <= 0
 c_u_x5461_: - 1.19025e+07 x25 + x514 - x5462 <= 0
 c_u_x5463_: - 2.601e+07 x26 + x515 - x5464 <= 0
 c_u_x5465_: - 4.761e+07 x27 + x516 - x5466 <= 0
 c_u_x5467_: - 6.32025e+07 x28 + x517 - x5468 <= 0
 c_u_x5469_: - 1.19025e+07 x29 + x518 - x5470 <= 0
 c_u_x5471_: - 2.601e+07 x30 + x519 - x5472 <= 0
 c_u_x5473_: - 4.761e+07 x31 + x520 - x5474 <= 0
 c_u_x5475_: - 6.32025e+07 x32 + x521 - x5476 <= 0
 c_u_x5477_: - 1.19025e+07 x33 + x522 - x5478 <= 0
 c_u_x5479_: - 2.601e+07 x34 + x523 - x5480 <= 0
 c_u_x5481_: - 4.761e+07 x35 + x524 - x5482 <= 0
 c_u_x5483_: - 6.32025e+07 x36 + x525 - x5484 <= 0
 c_u_x5485_: - 1.19025e+07 x37 + x526 - x5486 <= 0
 c_u_x5487_: - 2.601e+07 x38 + x527 - x5488 <= 0
 c_u_x5489_: - 4.761e+07 x39 + x528 - x5490 <= 0
 c_u_x5491_: - 6.32025e+07 x40 + x529 - x5492 <= 0
 c_u_x5493_: - 1.19025e+07 x41 + x530 - x5494 <= 0
 c_u_x5495_: - 2.601e+07 x42 + x531 - x5496 <= 0
 c_u_x5497_: - 4.761e+07 x43 + x532 - x5498 <= 0
 c_u_x5499_: - 6.32025e+07 x44 + x533 - x5500 <= 0
 c_u_x5501_: - 1.19025e+07 x45 + x534 - x5502 <= 0
 c_u_x5503_: - 2.601e+07 x46 + x535 - x5504 <= 0
 c_u_x5505_: - 4.761e+07 x47 + x536 - x5506 <= 0
 c_u_x5507_: - 6.32025e+07 x48 + x537 - x5508 <= 0
 c_u_x5509_: - 1.19025e+07 x49 + x538 - x5510 <= 0
 c_u_x5511_: - 2.601e+07 x50 + x539 - x5512 <= 0
 c_u_x5513_: - 4.761e+07 x51 + x540 - x5514 <= 0
 c_u_x5515_: - 6.32025e+07 x52 + x541 - x5516 <= 0
 c_u_x5517_: - 1.19025e+07 x53 + x542 - x5518 <= 0
 c_u_x5519_: - 2.601e+07 x54 + x543 - x5520 <= 0
 c_u_x5521_: - 4.761e+07 x55 + x544 - x5522 <= 0
 c_u_x5523_: - 6.32025e+07 x56 + x545 - x5524 <= 0
 c_u_x5525_: - 1.19025e+07 x57 + x546 - x5526 <= 0
 c_u_x5527_: - 2.601e+07 x58 + x547 - x5528 <= 0
 c_u_x5529_: - 4.761e+07 x59 + x548 - x5530 <= 0
 c_u_x5531_: - 6.32025e+07 x60 + x549 - x5532 <= 0
 c_u_x5533_: - 1.19025e+07 x61 + x550 - x5534 <= 0
 c_u_x5535_: - 2.601e+07 x62 + x551 - x5536 <= 0
 c_u_x5537_: - 4.761e+07 x63 + x552 - x5538 <= 0
 c_u_x5539_: - 6.32025e+07 x64 + x553 - x5540 <= 0
 c_u_x5541_: - 1.19025e+07 x65 + x554 - x5542 <= 0
 c_u_x5543_: - 2.601e+07 x66 + x555 - x5544 <= 0
 c_u_x5545_: - 4.761e+07 x67 + x556 - x5546 <= 0
 c_u_x5547_: - 6.32025e+07 x68 + x557 - x5548 <= 0
 c_u_x5549_: - 1.19025e+07 x69 + x558 - x5550 <= 0
 c_u_x5551_: - 2.601e+07 x70 + x559 - x5552 <= 0
 c_u_x5553_: - 4.761e+07 x71 + x560 - x5554 <= 0
 c_u_x5555_: - 6.32025e+07 x72 + x561 - x5556 <= 0
 c_u_x5557_: - 1.19025e+07 x73 + x562 - x5558 <= 0
 c_u_x5559_: - 2.601e+07 x74 + x563 - x5560 <= 0
 c_u_x5561_: - 4.761e+07 x75 + x564 - x5562 <= 0
 c_u_x5563_: - 6.32025e+07 x76 + x565 - x5564 <= 0
 c_u_x5565_: - 1.19025e+07 x77 + x566 - x5566 <= 0
 c_u_x5567_: - 2.601e+07 x78 + x567 - x5568 <= 0
 c_u_x5569_: - 4.761e+07 x79 + x568 - x5570 <= 0
 c_u_x5571_: - 6.32025e+07 x80 + x569 - x5572 <= 0
 c_u_x5573_: - 1.19025e+07 x81 + x570 - x5574 <= 0
 c_u_x5575_: - 2.601e+07 x82 + x571 - x5576 <= 0
 c_u_x5577_: - 4.761e+07 x83 + x572 - x5578 <= 0
 c_u_x5579_: - 6.32025e+07 x84 + x573 - x5580 <= 0
 c_u_x5581_: - 1.19025e+07 x85 + x574 - x5582 <= 0
 c_u_x5583_: - 2.601e+07 x86 + x575 - x5584 <= 0
 c_u_x5585_: - 4.761e+07 x87 + x576 - x5586 <= 0
 c_u_x5587_: - 6.32025e+07 x88 + x577 - x5588 <= 0
 c_u_x5589_: - 8464 x89 + x578 - x5590 <= 0
 c_u_x5591_: - 18496 x90 + x579 - x5592 <= 0
 c_u_x5593_: - 33856 x91 + x580 - x5594 <= 0
 c_u_x5595_: - 44944 x92 + x581 - x5596 <= 0
 c_u_x5597_: - 8464 x93 + x582 - x5598 <= 0
 c_u_x5599_: - 18496 x94 + x583 - x5600 <= 0
 c_u_x5601_: - 33856 x95 + x584 - x5602 <= 0
 c_u_x5603_: - 44944 x96 + x585 - x5604 <= 0
 c_u_x5605_: - 8464 x97 + x586 - x5606 <= 0
 c_u_x5607_: - 18496 x98 + x587 - x5608 <= 0
 c_u_x5609_: - 33856 x99 + x588 - x5610 <= 0
 c_u_x5611_: - 44944 x100 + x589 - x5612 <= 0
 c_u_x5613_: - 8464 x101 + x590 - x5614 <= 0
 c_u_x5615_: - 18496 x102 + x591 - x5616 <= 0
 c_u_x5617_: - 33856 x103 + x592 - x5618 <= 0
 c_u_x5619_: - 44944 x104 + x593 - x5620 <= 0
 c_u_x5621_: - 8464 x105 + x594 - x5622 <= 0
 c_u_x5623_: - 18496 x106 + x595 - x5624 <= 0
 c_u_x5625_: - 33856 x107 + x596 - x5626 <= 0
 c_u_x5627_: - 44944 x108 + x597 - x5628 <= 0
 c_u_x5629_: - 8464 x109 + x598 - x5630 <= 0
 c_u_x5631_: - 18496 x110 + x599 - x5632 <= 0
 c_u_x5633_: - 33856 x111 + x600 - x5634 <= 0
 c_u_x5635_: - 44944 x112 + x601 - x5636 <= 0
 c_u_x5637_: - 8464 x113 + x602 - x5638 <= 0
 c_u_x5639_: - 18496 x114 + x603 - x5640 <= 0
 c_u_x5641_: - 33856 x115 + x604 - x5642 <= 0
 c_u_x5643_: - 44944 x116 + x605 - x5644 <= 0
 c_u_x5645_: - 8464 x117 + x606 - x5646 <= 0
 c_u_x5647_: - 18496 x118 + x607 - x5648 <= 0
 c_u_x5649_: - 33856 x119 + x608 - x5650 <= 0
 c_u_x5651_: - 44944 x120 + x609 - x5652 <= 0
 c_u_x5653_: - 8464 x121 + x610 - x5654 <= 0
 c_u_x5655_: - 18496 x122 + x611 - x5656 <= 0
 c_u_x5657_: - 33856 x123 + x612 - x5658 <= 0
 c_u_x5659_: - 44944 x124 + x613 - x5660 <= 0
 c_u_x5661_: - 8464 x125 + x614 - x5662 <= 0
 c_u_x5663_: - 18496 x126 + x615 - x5664 <= 0
 c_u_x5665_: - 33856 x127 + x616 - x5666 <= 0
 c_u_x5667_: - 44944 x128 + x617 - x5668 <= 0
 c_u_x5669_: - 8464 x129 + x618 - x5670 <= 0
 c_u_x5671_: - 18496 x130 + x619 - x5672 <= 0
 c_u_x5673_: - 33856 x131 + x620 - x5674 <= 0
 c_u_x5675_: - 44944 x132 + x621 - x5676 <= 0
 c_u_x5677_: - 8464 x133 + x622 - x5678 <= 0
 c_u_x5679_: - 18496 x134 + x623 - x5680 <= 0
 c_u_x5681_: - 33856 x135 + x624 - x5682 <= 0
 c_u_x5683_: - 44944 x136 + x625 - x5684 <= 0
 c_u_x5685_: - 8464 x137 + x626 - x5686 <= 0
 c_u_x5687_: - 18496 x138 + x627 - x5688 <= 0
 c_u_x5689_: - 33856 x139 + x628 - x5690 <= 0
 c_u_x5691_: - 44944 x140 + x629 - x5692 <= 0
 c_u_x5693_: - 8464 x141 + x630 - x5694 <= 0
 c_u_x5695_: - 18496 x142 + x631 - x5696 <= 0
 c_u_x5697_: - 33856 x143 + x632 - x5698 <= 0
 c_u_x5699_: - 44944 x144 + x633 - x5700 <= 0
 c_u_x5701_: - 8464 x145 + x634 - x5702 <= 0
 c_u_x5703_: - 18496 x146 + x635 - x5704 <= 0
 c_u_x5705_: - 33856 x147 + x636 - x5706 <= 0
 c_u_x5707_: - 44944 x148 + x637 - x5708 <= 0
 c_u_x5709_: - 8464 x149 + x638 - x5710 <= 0
 c_u_x5711_: - 18496 x150 + x639 - x5712 <= 0
 c_u_x5713_: - 33856 x151 + x640 - x5714 <= 0
 c_u_x5715_: - 44944 x152 + x641 - x5716 <= 0
 c_u_x5717_: - 8464 x153 + x642 - x5718 <= 0
 c_u_x5719_: - 18496 x154 + x643 - x5720 <= 0
 c_u_x5721_: - 33856 x155 + x644 - x5722 <= 0
 c_u_x5723_: - 44944 x156 + x645 - x5724 <= 0
 c_u_x5725_: - 8464 x157 + x646 - x5726 <= 0
 c_u_x5727_: - 18496 x158 + x647 - x5728 <= 0
 c_u_x5729_: - 33856 x159 + x648 - x5730 <= 0
 c_u_x5731_: - 44944 x160 + x649 - x5732 <= 0
 c_u_x5733_: - 1.19025e+07 x161 + x650 - x5734 <= 0
 c_u_x5735_: - 2.601e+07 x162 + x651 - x5736 <= 0
 c_u_x5737_: - 4.761e+07 x163 + x652 - x5738 <= 0
 c_u_x5739_: - 6.32025e+07 x164 + x653 - x5740 <= 0
 c_u_x5741_: - 1.19025e+07 x165 + x654 - x5742 <= 0
 c_u_x5743_: - 2.601e+07 x166 + x655 - x5744 <= 0
 c_u_x5745_: - 4.761e+07 x167 + x656 - x5746 <= 0
 c_u_x5747_: - 6.32025e+07 x168 + x657 - x5748 <= 0
 c_u_x5749_: - 1.19025e+07 x169 + x658 - x5750 <= 0
 c_u_x5751_: - 2.601e+07 x170 + x659 - x5752 <= 0
 c_u_x5753_: - 4.761e+07 x171 + x660 - x5754 <= 0
 c_u_x5755_: - 6.32025e+07 x172 + x661 - x5756 <= 0
 c_u_x5757_: - 1.19025e+07 x173 + x662 - x5758 <= 0
 c_u_x5759_: - 2.601e+07 x174 + x663 - x5760 <= 0
 c_u_x5761_: - 4.761e+07 x175 + x664 - x5762 <= 0
 c_u_x5763_: - 6.32025e+07 x176 + x665 - x5764 <= 0
 c_u_x5765_: - 1.19025e+07 x177 + x666 - x5766 <= 0
 c_u_x5767_: - 2.601e+07 x178 + x667 - x5768 <= 0
 c_u_x5769_: - 4.761e+07 x179 + x668 - x5770 <= 0
 c_u_x5771_: - 6.32025e+07 x180 + x669 - x5772 <= 0
 c_u_x5773_: - 1.19025e+07 x181 + x670 - x5774 <= 0
 c_u_x5775_: - 2.601e+07 x182 + x671 - x5776 <= 0
 c_u_x5777_: - 4.761e+07 x183 + x672 - x5778 <= 0
 c_u_x5779_: - 6.32025e+07 x184 + x673 - x5780 <= 0
 c_u_x5781_: - 8464 x185 + x674 - x5782 <= 0
 c_u_x5783_: - 18496 x186 + x675 - x5784 <= 0
 c_u_x5785_: - 33856 x187 + x676 - x5786 <= 0
 c_u_x5787_: - 44944 x188 + x677 - x5788 <= 0
 c_u_x5789_: - 8464 x189 + x678 - x5790 <= 0
 c_u_x5791_: - 18496 x190 + x679 - x5792 <= 0
 c_u_x5793_: - 33856 x191 + x680 - x5794 <= 0
 c_u_x5795_: - 44944 x192 + x681 - x5796 <= 0
 c_u_x5797_: - 8464 x193 + x682 - x5798 <= 0
 c_u_x5799_: - 18496 x194 + x683 - x5800 <= 0
 c_u_x5801_: - 33856 x195 + x684 - x5802 <= 0
 c_u_x5803_: - 44944 x196 + x685 - x5804 <= 0
 c_u_x5805_: - 8464 x197 + x686 - x5806 <= 0
 c_u_x5807_: - 18496 x198 + x687 - x5808 <= 0
 c_u_x5809_: - 33856 x199 + x688 - x5810 <= 0
 c_u_x5811_: - 44944 x200 + x689 - x5812 <= 0
 c_u_x5813_: - 8464 x201 + x690 - x5814 <= 0
 c_u_x5815_: - 18496 x202 + x691 - x5816 <= 0
 c_u_x5817_: - 33856 x203 + x692 - x5818 <= 0
 c_u_x5819_: - 44944 x204 + x693 - x5820 <= 0
 c_u_x5821_: - 8464 x205 + x694 - x5822 <= 0
 c_u_x5823_: - 18496 x206 + x695 - x5824 <= 0
 c_u_x5825_: - 33856 x207 + x696 - x5826 <= 0
 c_u_x5827_: - 44944 x208 + x697 - x5828 <= 0
 c_u_x5829_: - 8464 x209 + x698 - x5830 <= 0
 c_u_x5831_: - 18496 x210 + x699 - x5832 <= 0
 c_u_x5833_: - 33856 x211 + x700 - x5834 <= 0
 c_u_x5835_: - 44944 x212 + x701 - x5836 <= 0
 c_u_x5837_: - 8464 x213 + x702 - x5838 <= 0
 c_u_x5839_: - 18496 x214 + x703 - x5840 <= 0
 c_u_x5841_: - 33856 x215 + x704 - x5842 <= 0
 c_u_x5843_: - 44944 x216 + x705 - x5844 <= 0
 c_u_x5845_: - 8464 x217 + x706 - x5846 <= 0
 c_u_x5847_: - 18496 x218 + x707 - x5848 <= 0
 c_u_x5849_: - 33856 x219 + x708 - x5850 <= 0
 c_u_x5851_: - 44944 x220 + x709 - x5852 <= 0
 c_u_x5853_: - 8464 x221 + x710 - x5854 <= 0
 c_u_x5855_: - 18496 x222 + x711 - x5856 <= 0
 c_u_x5857_: - 33856 x223 + x712 - x5858 <= 0
 c_u_x5859_: - 44944 x224 + x713 - x5860 <= 0
 c_u_x5861_: - 8464 x225 + x714 - x5862 <= 0
 c_u_x5863_: - 18496 x226 + x715 - x5864 <= 0
 c_u_x5865_: - 33856 x227 + x716 - x5866 <= 0
 c_u_x5867_: - 44944 x228 + x717 - x5868 <= 0
 c_u_x5869_: - 8464 x229 + x718 - x5870 <= 0
 c_u_x5871_: - 18496 x230 + x719 - x5872 <= 0
 c_u_x5873_: - 33856 x231 + x720 - x5874 <= 0
 c_u_x5875_: - 44944 x232 + x721 - x5876 <= 0
 c_u_x5877_: - 8464 x233 + x722 - x5878 <= 0
 c_u_x5879_: - 18496 x234 + x723 - x5880 <= 0
 c_u_x5881_: - 33856 x235 + x724 - x5882 <= 0
 c_u_x5883_: - 44944 x236 + x725 - x5884 <= 0
 c_u_x5885_: - 8464 x237 + x726 - x5886 <= 0
 c_u_x5887_: - 18496 x238 + x727 - x5888 <= 0
 c_u_x5889_: - 33856 x239 + x728 - x5890 <= 0
 c_u_x5891_: - 44944 x240 + x729 - x5892 <= 0
 c_u_x5893_: - 8464 x241 + x730 - x5894 <= 0
 c_u_x5895_: - 18496 x242 + x731 - x5896 <= 0
 c_u_x5897_: - 33856 x243 + x732 - x5898 <= 0
 c_u_x5899_: - 44944 x244 + x733 - x5900 <= 0
 c_u_x5901_: - 8464 x245 + x734 - x5902 <= 0
 c_u_x5903_: - 18496 x246 + x735 - x5904 <= 0
 c_u_x5905_: - 33856 x247 + x736 - x5906 <= 0
 c_u_x5907_: - 44944 x248 + x737 - x5908 <= 0
 c_e_x5909_: - x9 - x10 - x11 - x12 + x2514 = 0
 c_e_x5910_: - x13 - x14 - x15 - x16 + x2517 = 0
 c_e_x5911_: - x17 - x18 - x19 - x20 + x2520 = 0
 c_e_x5912_: - x21 - x22 - x23 - x24 + x2523 = 0
 c_e_x5913_: - x25 - x26 - x27 - x28 + x2526 = 0
 c_e_x5914_: - x29 - x30 - x31 - x32 + x2528 = 0
 c_e_x5915_: - x33 - x34 - x35 - x36 + x2530 = 0
 c_e_x5916_: - x37 - x38 - x39 - x40 + x2532 = 0
 c_e_x5917_: - x41 - x42 - x43 - x44 + x2535 = 0
 c_e_x5918_: - x45 - x46 - x47 - x48 + x2538 = 0
 c_e_x5919_: - x49 - x50 - x51 - x52 + x2541 = 0
 c_e_x5920_: - x53 - x54 - x55 - x56 + x2543 = 0
 c_e_x5921_: - x57 - x58 - x59 - x60 + x2545 = 0
 c_e_x5922_: - x61 - x62 - x63 - x64 + x2547 = 0
 c_e_x5923_: - x65 - x66 - x67 - x68 + x2550 = 0
 c_e_x5924_: - x69 - x70 - x71 - x72 + x2553 = 0
 c_e_x5925_: - x73 - x74 - x75 - x76 + x2556 = 0
 c_e_x5926_: - x77 - x78 - x79 - x80 + x2558 = 0
 c_e_x5927_: - x81 - x82 - x83 - x84 + x2560 = 0
 c_e_x5928_: - x85 - x86 - x87 - x88 + x2562 = 0
 c_e_x5929_: - x89 - x90 - x91 - x92 + x2565 = 0
 c_e_x5930_: - x93 - x94 - x95 - x96 + x2568 = 0
 c_e_x5931_: - x97 - x98 - x99 - x100 + x2571 = 0
 c_e_x5932_: - x101 - x102 - x103 - x104 + x2574 = 0
 c_e_x5933_: - x105 - x106 - x107 - x108 + x2576 = 0
 c_e_x5934_: - x109 - x110 - x111 - x112 + x2578 = 0
 c_e_x5935_: - x113 - x114 - x115 - x116 + x2580 = 0
 c_e_x5936_: - x117 - x118 - x119 - x120 + x2582 = 0
 c_e_x5937_: - x121 - x122 - x123 - x124 + x2585 = 0
 c_e_x5938_: - x125 - x126 - x127 - x128 + x2588 = 0
 c_e_x5939_: - x129 - x130 - x131 - x132 + x2591 = 0
 c_e_x5940_: - x133 - x134 - x135 - x136 + x2594 = 0
 c_e_x5941_: - x137 - x138 - x139 - x140 + x2597 = 0
 c_e_x5942_: - x141 - x142 - x143 - x144 + x2599 = 0
 c_e_x5943_: - x145 - x146 - x147 - x148 + x2601 = 0
 c_e_x5944_: - x149 - x150 - x151 - x152 + x2603 = 0
 c_e_x5945_: - x153 - x154 - x155 - x156 + x2605 = 0
 c_e_x5946_: - x157 - x158 - x159 - x160 + x2607 = 0
 c_e_x5947_: - x161 - x162 - x163 - x164 + x2609 = 0
 c_e_x5948_: - x165 - x166 - x167 - x168 + x2611 = 0
 c_e_x5949_: - x169 - x170 - x171 - x172 + x2613 = 0
 c_e_x5950_: - x173 - x174 - x175 - x176 + x2615 = 0
 c_e_x5951_: - x177 - x178 - x179 - x180 + x2617 = 0
 c_e_x5952_: - x181 - x182 - x183 - x184 + x2619 = 0
 c_e_x5953_: - x185 - x186 - x187 - x188 + x2621 = 0
 c_e_x5954_: - x189 - x190 - x191 - x192 + x2623 = 0
 c_e_x5955_: - x193 - x194 - x195 - x196 + x2625 = 0
 c_e_x5956_: - x197 - x198 - x199 - x200 + x2627 = 0
 c_e_x5957_: - x201 - x202 - x203 - x204 + x2629 = 0
 c_e_x5958_: - x205 - x206 - x207 - x208 + x2631 = 0
 c_e_x5959_: - x209 - x210 - x211 - x212 + x2633 = 0
 c_e_x5960_: - x213 - x214 - x215 - x216 + x2635 = 0
 c_e_x5961_: - x217 - x218 - x219 - x220 + x2637 = 0
 c_e_x5962_: - x221 - x222 - x223 - x224 + x2639 = 0
 c_e_x5963_: - x225 - x226 - x227 - x228 + x2641 = 0
 c_e_x5964_: - x229 - x230 - x231 - x232 + x2643 = 0
 c_e_x5965_: - x233 - x234 - x235 - x236 + x2645 = 0
 c_e_x5966_: - x237 - x238 - x239 - x240 + x2647 = 0
 c_e_x5967_: - x241 - x242 - x243 - x244 + x2649 = 0
 c_e_x5968_: - x245 - x246 - x247 - x248 + x2651 = 0
 c_e_x5969_: x2514 + x2517 + x2520 + x2523 + x2526 + x2528 + x2530 + x2532
   + x2535 + x2538 + x2541 + x2543 + x2545 + x2547 + x2550 + x2553 + x2556
   + x2558 + x2560 + x2562 + x2565 + x2568 + x2571 + x2574 + x2576 + x2578
   + x2580 + x2582 + x2585 + x2588 + x2591 + x2594 + x2597 + x2599 + x2601
   + x2603 + x2605 + x2607 + x2609 + x2611 + x2613 + x2615 + x2617 + x2619
   + x2621 + x2623 + x2625 + x2627 + x2629 + x2631 + x2633 + x2635 + x2637
   + x2639 + x2641 + x2643 + x2645 + x2647 + x2649 + x2651 - x3022 - x3024
   - x3026 - x3028 = 15
 c_e_x5970_: - x6 + x4950 + x4952 + x4954 + x4956 + x4958 + x4960 + x4962
   + x4964 + x4966 + x4968 + x4970 + x4972 + x4974 + x4976 + x4978 + x4980
   + x4982 + x4984 + x4986 + x4988 + x4990 + x4992 + x4994 + x4996 + x4998
   + x5000 + x5002 + x5004 + x5006 + x5008 + x5010 + x5012 + x5014 + x5016
   + x5018 + x5020 + x5022 + x5024 + x5026 + x5028 + x5030 + x5032 + x5034
   + x5036 + x5038 + x5040 + x5042 + x5044 + x5046 + x5048 + x5050 + x5052
   + x5054 + x5056 + x5058 + x5060 + x5062 + x5064 + x5066 + x5068 + x5070
   + x5072 + x5074 + x5076 + x5078 + x5080 + x5082 + x5084 + x5086 + x5088
   + x5090 + x5092 + x5094 + x5096 + x5098 + x5100 + x5102 + x5104 + x5106
   + x5108 + x5110 + x5112 + x5114 + x5116 + x5118 + x5120 + x5122 + x5124
   + x5126 + x5128 + x5130 + x5132 + x5134 + x5136 + x5138 + x5140 + x5142
   + x5144 + x5146 + x5148 + x5150 + x5152 + x5154 + x5156 + x5158 + x5160
   + x5162 + x5164 + x5166 + x5168 + x5170 + x5172 + x5174 + x5176 + x5178
   + x5180 + x5182 + x5184 + x5186 + x5188 + x5190 + x5192 + x5194 + x5196
   + x5198 + x5200 + x5202 + x5204 + x5206 + x5208 + x5210 + x5212 + x5214
   + x5216 + x5218 + x5220 + x5222 + x5224 + x5226 + x5228 + x5230 + x5232
   + x5234 + x5236 + x5238 + x5240 + x5242 + x5244 + x5246 + x5248 + x5250
   + x5252 + x5254 + x5256 + x5258 + x5260 + x5262 + x5264 + x5266 + x5268
   + x5270 + x5272 + x5274 + x5276 + x5278 + x5280 + x5282 + x5284 + x5286
   + x5288 + x5290 + x5292 + x5294 + x5296 + x5298 + x5300 + x5302 + x5304
   + x5306 + x5308 + x5310 + x5312 + x5314 + x5316 + x5318 + x5320 + x5322
   + x5324 + x5326 + x5328 + x5330 + x5332 + x5334 + x5336 + x5338 + x5340
   + x5342 + x5344 + x5346 + x5348 + x5350 + x5352 + x5354 + x5356 + x5358
   + x5360 + x5362 + x5364 + x5366 + x5368 + x5370 + x5372 + x5374 + x5376
   + x5378 + x5380 + x5382 + x5384 + x5386 + x5388 + x5390 + x5392 + x5394
   + x5396 + x5398 + x5400 + x5402 + x5404 + x5406 + x5408 + x5410 + x5412
   + x5414 + x5416 + x5418 + x5420 + x5422 + x5424 + x5426 + x5428 = 0
 c_e_x5971_: - x7 + x5430 + x5432 + x5434 + x5436 + x5438 + x5440 + x5442
   + x5444 + x5446 + x5448 + x5450 + x5452 + x5454 + x5456 + x5458 + x5460
   + x5462 + x5464 + x5466 + x5468 + x5470 + x5472 + x5474 + x5476 + x5478
   + x5480 + x5482 + x5484 + x5486 + x5488 + x5490 + x5492 + x5494 + x5496
   + x5498 + x5500 + x5502 + x5504 + x5506 + x5508 + x5510 + x5512 + x5514
   + x5516 + x5518 + x5520 + x5522 + x5524 + x5526 + x5528 + x5530 + x5532
   + x5534 + x5536 + x5538 + x5540 + x5542 + x5544 + x5546 + x5548 + x5550
   + x5552 + x5554 + x5556 + x5558 + x5560 + x5562 + x5564 + x5566 + x5568
   + x5570 + x5572 + x5574 + x5576 + x5578 + x5580 + x5582 + x5584 + x5586
   + x5588 + x5590 + x5592 + x5594 + x5596 + x5598 + x5600 + x5602 + x5604
   + x5606 + x5608 + x5610 + x5612 + x5614 + x5616 + x5618 + x5620 + x5622
   + x5624 + x5626 + x5628 + x5630 + x5632 + x5634 + x5636 + x5638 + x5640
   + x5642 + x5644 + x5646 + x5648 + x5650 + x5652 + x5654 + x5656 + x5658
   + x5660 + x5662 + x5664 + x5666 + x5668 + x5670 + x5672 + x5674 + x5676
   + x5678 + x5680 + x5682 + x5684 + x5686 + x5688 + x5690 + x5692 + x5694
   + x5696 + x5698 + x5700 + x5702 + x5704 + x5706 + x5708 + x5710 + x5712
   + x5714 + x5716 + x5718 + x5720 + x5722 + x5724 + x5726 + x5728 + x5730
   + x5732 + x5734 + x5736 + x5738 + x5740 + x5742 + x5744 + x5746 + x5748
   + x5750 + x5752 + x5754 + x5756 + x5758 + x5760 + x5762 + x5764 + x5766
   + x5768 + x5770 + x5772 + x5774 + x5776 + x5778 + x5780 + x5782 + x5784
   + x5786 + x5788 + x5790 + x5792 + x5794 + x5796 + x5798 + x5800 + x5802
   + x5804 + x5806 + x5808 + x5810 + x5812 + x5814 + x5816 + x5818 + x5820
   + x5822 + x5824 + x5826 + x5828 + x5830 + x5832 + x5834 + x5836 + x5838
   + x5840 + x5842 + x5844 + x5846 + x5848 + x5850 + x5852 + x5854 + x5856
   + x5858 + x5860 + x5862 + x5864 + x5866 + x5868 + x5870 + x5872 + x5874
   + x5876 + x5878 + x5880 + x5882 + x5884 + x5886 + x5888 + x5890 + x5892
   + x5894 + x5896 + x5898 + x5900 + x5902 + x5904 + x5906 + x5908 = 0
 c_u_x2853_: [ x740 ^2 + x1460 ^2 - x2180 * x2512 ] <= 0
 c_u_x2854_: [ x746 ^2 + x1466 ^2 - x2182 * x2512 ] <= 0
 c_u_x2855_: [ x752 ^2 + x1472 ^2 - x2184 * x2512 ] <= 0
 c_u_x2856_: [ x758 ^2 + x1478 ^2 - x2186 * x2512 ] <= 0
 c_u_x2857_: [ x764 ^2 + x1484 ^2 - x2188 * x2525 ] <= 0
 c_u_x2858_: [ x770 ^2 + x1490 ^2 - x2190 * x2525 ] <= 0
 c_u_x2859_: [ x776 ^2 + x1496 ^2 - x2192 * x2525 ] <= 0
 c_u_x2860_: [ x782 ^2 + x1502 ^2 - x2194 * x2525 ] <= 0
 c_u_x2861_: [ x788 ^2 + x1508 ^2 - x2196 * x2513 ] <= 0
 c_u_x2862_: [ x794 ^2 + x1514 ^2 - x2198 * x2513 ] <= 0
 c_u_x2863_: [ x800 ^2 + x1520 ^2 - x2200 * x2513 ] <= 0
 c_u_x2864_: [ x806 ^2 + x1526 ^2 - x2202 * x2516 ] <= 0
 c_u_x2865_: [ x812 ^2 + x1532 ^2 - x2204 * x2516 ] <= 0
 c_u_x2866_: [ x818 ^2 + x1538 ^2 - x2206 * x2516 ] <= 0
 c_u_x2867_: [ x824 ^2 + x1544 ^2 - x2208 * x2519 ] <= 0
 c_u_x2868_: [ x830 ^2 + x1550 ^2 - x2210 * x2519 ] <= 0
 c_u_x2869_: [ x836 ^2 + x1556 ^2 - x2212 * x2519 ] <= 0
 c_u_x2870_: [ x842 ^2 + x1562 ^2 - x2214 * x2522 ] <= 0
 c_u_x2871_: [ x848 ^2 + x1568 ^2 - x2216 * x2522 ] <= 0
 c_u_x2872_: [ x854 ^2 + x1574 ^2 - x2218 * x2522 ] <= 0
 c_u_x2873_: [ x860 ^2 + x1580 ^2 - x2220 * x2513 ] <= 0
 c_u_x2874_: [ x866 ^2 + x1586 ^2 - x2222 * x2513 ] <= 0
 c_u_x2875_: [ x872 ^2 + x1592 ^2 - x2224 * x2513 ] <= 0
 c_u_x2876_: [ x878 ^2 + x1598 ^2 - x2226 * x2513 ] <= 0
 c_u_x2877_: [ x884 ^2 + x1604 ^2 - x2228 * x2516 ] <= 0
 c_u_x2878_: [ x890 ^2 + x1610 ^2 - x2230 * x2516 ] <= 0
 c_u_x2879_: [ x896 ^2 + x1616 ^2 - x2232 * x2516 ] <= 0
 c_u_x2880_: [ x902 ^2 + x1622 ^2 - x2234 * x2516 ] <= 0
 c_u_x2881_: [ x908 ^2 + x1628 ^2 - x2236 * x2519 ] <= 0
 c_u_x2882_: [ x914 ^2 + x1634 ^2 - x2238 * x2519 ] <= 0
 c_u_x2883_: [ x920 ^2 + x1640 ^2 - x2240 * x2519 ] <= 0
 c_u_x2884_: [ x926 ^2 + x1646 ^2 - x2242 * x2519 ] <= 0
 c_u_x2885_: [ x932 ^2 + x1652 ^2 - x2244 * x2519 ] <= 0
 c_u_x2886_: [ x938 ^2 + x1658 ^2 - x2246 * x2522 ] <= 0
 c_u_x2887_: [ x944 ^2 + x1664 ^2 - x2248 * x2522 ] <= 0
 c_u_x2888_: [ x950 ^2 + x1670 ^2 - x2250 * x2522 ] <= 0
 c_u_x2889_: [ x956 ^2 + x1676 ^2 - x2252 * x2522 ] <= 0
 c_u_x2890_: [ x962 ^2 + x1682 ^2 - x2254 * x2522 ] <= 0
 c_u_x2891_: [ x968 ^2 + x1688 ^2 - x2256 * x2534 ] <= 0
 c_u_x2892_: [ x974 ^2 + x1694 ^2 - x2258 * x2534 ] <= 0
 c_u_x2893_: [ x980 ^2 + x1700 ^2 - x2260 * x2537 ] <= 0
 c_u_x2894_: [ x986 ^2 + x1706 ^2 - x2262 * x2549 ] <= 0
 c_u_x2895_: [ x992 ^2 + x1712 ^2 - x2264 * x2549 ] <= 0
 c_u_x2896_: [ x998 ^2 + x1718 ^2 - x2266 * x2552 ] <= 0
 c_u_x2897_: [ x1004 ^2 + x1724 ^2 - x2268 * x2564 ] <= 0
 c_u_x2898_: [ x1010 ^2 + x1730 ^2 - x2270 * x2564 ] <= 0
 c_u_x2899_: [ x1016 ^2 + x1736 ^2 - x2272 * x2564 ] <= 0
 c_u_x2900_: [ x1022 ^2 + x1742 ^2 - x2274 * x2567 ] <= 0
 c_u_x2901_: [ x1028 ^2 + x1748 ^2 - x2276 * x2567 ] <= 0
 c_u_x2902_: [ x1034 ^2 + x1754 ^2 - x2278 * x2570 ] <= 0
 c_u_x2903_: [ x1040 ^2 + x1760 ^2 - x2280 * x2584 ] <= 0
 c_u_x2904_: [ x1046 ^2 + x1766 ^2 - x2282 * x2584 ] <= 0
 c_u_x2905_: [ x1052 ^2 + x1772 ^2 - x2284 * x2584 ] <= 0
 c_u_x2906_: [ x1058 ^2 + x1778 ^2 - x2286 * x2584 ] <= 0
 c_u_x2907_: [ x1064 ^2 + x1784 ^2 - x2288 * x2587 ] <= 0
 c_u_x2908_: [ x1070 ^2 + x1790 ^2 - x2290 * x2587 ] <= 0
 c_u_x2909_: [ x1076 ^2 + x1796 ^2 - x2292 * x2587 ] <= 0
 c_u_x2910_: [ x1082 ^2 + x1802 ^2 - x2294 * x2590 ] <= 0
 c_u_x2911_: [ x1088 ^2 + x1808 ^2 - x2296 * x2590 ] <= 0
 c_u_x2912_: [ x1094 ^2 + x1814 ^2 - x2298 * x2593 ] <= 0
 c_u_x2913_: [ x1100 ^2 + x1820 ^2 - x2300 * x2653 ] <= 0
 c_u_x2914_: [ x1106 ^2 + x1826 ^2 - x2302 * x2653 ] <= 0
 c_u_x2915_: [ x1112 ^2 + x1832 ^2 - x2304 * x2653 ] <= 0
 c_u_x2916_: [ x1118 ^2 + x1838 ^2 - x2306 * x2653 ] <= 0
 c_u_x2917_: [ x1124 ^2 + x1844 ^2 - x2308 * x2662 ] <= 0
 c_u_x2918_: [ x1130 ^2 + x1850 ^2 - x2310 * x2662 ] <= 0
 c_u_x2919_: [ x1136 ^2 + x1856 ^2 - x2312 * x2662 ] <= 0
 c_u_x2920_: [ x1142 ^2 + x1862 ^2 - x2314 * x2662 ] <= 0
 c_u_x2921_: [ x1148 ^2 + x1868 ^2 - x2316 * x2654 ] <= 0
 c_u_x2922_: [ x1154 ^2 + x1874 ^2 - x2318 * x2654 ] <= 0
 c_u_x2923_: [ x1160 ^2 + x1880 ^2 - x2320 * x2654 ] <= 0
 c_u_x2924_: [ x1166 ^2 + x1886 ^2 - x2322 * x2656 ] <= 0
 c_u_x2925_: [ x1172 ^2 + x1892 ^2 - x2324 * x2656 ] <= 0
 c_u_x2926_: [ x1178 ^2 + x1898 ^2 - x2326 * x2656 ] <= 0
 c_u_x2927_: [ x1184 ^2 + x1904 ^2 - x2328 * x2658 ] <= 0
 c_u_x2928_: [ x1190 ^2 + x1910 ^2 - x2330 * x2658 ] <= 0
 c_u_x2929_: [ x1196 ^2 + x1916 ^2 - x2332 * x2658 ] <= 0
 c_u_x2930_: [ x1202 ^2 + x1922 ^2 - x2334 * x2660 ] <= 0
 c_u_x2931_: [ x1208 ^2 + x1928 ^2 - x2336 * x2660 ] <= 0
 c_u_x2932_: [ x1214 ^2 + x1934 ^2 - x2338 * x2660 ] <= 0
 c_u_x2933_: [ x1220 ^2 + x1940 ^2 - x2340 * x2654 ] <= 0
 c_u_x2934_: [ x1226 ^2 + x1946 ^2 - x2342 * x2654 ] <= 0
 c_u_x2935_: [ x1232 ^2 + x1952 ^2 - x2344 * x2654 ] <= 0
 c_u_x2936_: [ x1238 ^2 + x1958 ^2 - x2346 * x2654 ] <= 0
 c_u_x2937_: [ x1244 ^2 + x1964 ^2 - x2348 * x2656 ] <= 0
 c_u_x2938_: [ x1250 ^2 + x1970 ^2 - x2350 * x2656 ] <= 0
 c_u_x2939_: [ x1256 ^2 + x1976 ^2 - x2352 * x2656 ] <= 0
 c_u_x2940_: [ x1262 ^2 + x1982 ^2 - x2354 * x2656 ] <= 0
 c_u_x2941_: [ x1268 ^2 + x1988 ^2 - x2356 * x2658 ] <= 0
 c_u_x2942_: [ x1274 ^2 + x1994 ^2 - x2358 * x2658 ] <= 0
 c_u_x2943_: [ x1280 ^2 + x2000 ^2 - x2360 * x2658 ] <= 0
 c_u_x2944_: [ x1286 ^2 + x2006 ^2 - x2362 * x2658 ] <= 0
 c_u_x2945_: [ x1292 ^2 + x2012 ^2 - x2364 * x2658 ] <= 0
 c_u_x2946_: [ x1298 ^2 + x2018 ^2 - x2366 * x2660 ] <= 0
 c_u_x2947_: [ x1304 ^2 + x2024 ^2 - x2368 * x2660 ] <= 0
 c_u_x2948_: [ x1310 ^2 + x2030 ^2 - x2370 * x2660 ] <= 0
 c_u_x2949_: [ x1316 ^2 + x2036 ^2 - x2372 * x2660 ] <= 0
 c_u_x2950_: [ x1322 ^2 + x2042 ^2 - x2374 * x2660 ] <= 0
 c_u_x2951_: [ x1328 ^2 + x2048 ^2 - x2376 * x2667 ] <= 0
 c_u_x2952_: [ x1334 ^2 + x2054 ^2 - x2378 * x2667 ] <= 0
 c_u_x2953_: [ x1340 ^2 + x2060 ^2 - x2380 * x2669 ] <= 0
 c_u_x2954_: [ x1346 ^2 + x2066 ^2 - x2382 * x2676 ] <= 0
 c_u_x2955_: [ x1352 ^2 + x2072 ^2 - x2384 * x2676 ] <= 0
 c_u_x2956_: [ x1358 ^2 + x2078 ^2 - x2386 * x2678 ] <= 0
 c_u_x2957_: [ x1364 ^2 + x2084 ^2 - x2388 * x2685 ] <= 0
 c_u_x2958_: [ x1370 ^2 + x2090 ^2 - x2390 * x2685 ] <= 0
 c_u_x2959_: [ x1376 ^2 + x2096 ^2 - x2392 * x2685 ] <= 0
 c_u_x2960_: [ x1382 ^2 + x2102 ^2 - x2394 * x2687 ] <= 0
 c_u_x2961_: [ x1388 ^2 + x2108 ^2 - x2396 * x2687 ] <= 0
 c_u_x2962_: [ x1394 ^2 + x2114 ^2 - x2398 * x2689 ] <= 0
 c_u_x2963_: [ x1400 ^2 + x2120 ^2 - x2400 * x2697 ] <= 0
 c_u_x2964_: [ x1406 ^2 + x2126 ^2 - x2402 * x2697 ] <= 0
 c_u_x2965_: [ x1412 ^2 + x2132 ^2 - x2404 * x2697 ] <= 0
 c_u_x2966_: [ x1418 ^2 + x2138 ^2 - x2406 * x2697 ] <= 0
 c_u_x2967_: [ x1424 ^2 + x2144 ^2 - x2408 * x2699 ] <= 0
 c_u_x2968_: [ x1430 ^2 + x2150 ^2 - x2410 * x2699 ] <= 0
 c_u_x2969_: [ x1436 ^2 + x2156 ^2 - x2412 * x2699 ] <= 0
 c_u_x2970_: [ x1442 ^2 + x2162 ^2 - x2414 * x2701 ] <= 0
 c_u_x2971_: [ x1448 ^2 + x2168 ^2 - x2416 * x2701 ] <= 0
 c_u_x2972_: [ x1454 ^2 + x2174 ^2 - x2418 * x2703 ] <= 0
 c_u_x2973_: [ x2420 ^2 + x2428 ^2 - x2974 ^2 ] <= 0
 c_u_x2975_: [ x2422 ^2 + x2430 ^2 - x2976 ^2 ] <= 0
 c_u_x2977_: [ x2424 ^2 + x2432 ^2 - x2978 ^2 ] <= 0
 c_u_x2979_: [ x2426 ^2 + x2434 ^2 - x2980 ^2 ] <= 0
 c_u_x2997_: [ 9.56745e-13 x257 ^2 + 9.55354e-13 x257 * x258
   + 7.58162e-13 x257 * x259 + 6.02356e-13 x257 * x260
   + 5.15223e-12 x257 * x273 + 2.57237e-12 x257 * x274
   + 2.04141e-12 x257 * x275 + 1.62189e-12 x257 * x276
   - 1.95627e-06 x257 * x741 - 1.95627e-06 x257 * x742
   - 1.95627e-06 x257 * x743 - 1.95627e-06 x257 * x744
   - 1.95627e-06 x257 * x765 - 1.95627e-06 x257 * x766
   - 1.95627e-06 x257 * x767 - 1.95627e-06 x257 * x768
   + 1.95627e-06 x257 * x861 + 1.95627e-06 x257 * x862
   + 1.95627e-06 x257 * x863 + 1.95627e-06 x257 * x864
   + 1.95627e-06 x257 * x867 + 1.95627e-06 x257 * x868
   + 1.95627e-06 x257 * x869 + 1.95627e-06 x257 * x870
   + 1.95627e-06 x257 * x873 + 1.95627e-06 x257 * x874
   + 1.95627e-06 x257 * x875 + 1.95627e-06 x257 * x876
   + 1.95627e-06 x257 * x879 + 1.95627e-06 x257 * x880
   + 1.95627e-06 x257 * x881 + 1.95627e-06 x257 * x882
   + 2.38491e-13 x258 ^2 + 3.7853e-13 x258 * x259 + 3.0074e-13 x258 * x260
   + 2.57237e-12 x258 * x273 + 1.28431e-12 x258 * x274
   + 1.01922e-12 x258 * x275 + 8.09768e-13 x258 * x276
   - 9.76711e-07 x258 * x741 - 9.76711e-07 x258 * x742
   - 9.76711e-07 x258 * x743 - 9.76711e-07 x258 * x744
   - 9.76711e-07 x258 * x765 - 9.76711e-07 x258 * x766
   - 9.76711e-07 x258 * x767 - 9.76711e-07 x258 * x768
   + 9.76711e-07 x258 * x861 + 9.76711e-07 x258 * x862
   + 9.76711e-07 x258 * x863 + 9.76711e-07 x258 * x864
   + 9.76711e-07 x258 * x867 + 9.76711e-07 x258 * x868
   + 9.76711e-07 x258 * x869 + 9.76711e-07 x258 * x870
   + 9.76711e-07 x258 * x873 + 9.76711e-07 x258 * x874
   + 9.76711e-07 x258 * x875 + 9.76711e-07 x258 * x876
   + 9.76711e-07 x258 * x879 + 9.76711e-07 x258 * x880
   + 9.76711e-07 x258 * x881 + 9.76711e-07 x258 * x882
   + 1.50199e-13 x259 ^2 + 2.38665e-13 x259 * x260
   + 2.04141e-12 x259 * x273 + 1.01922e-12 x259 * x274
   + 8.08848e-13 x259 * x275 + 6.42626e-13 x259 * x276
   - 7.75111e-07 x259 * x741 - 7.75111e-07 x259 * x742
   - 7.75111e-07 x259 * x743 - 7.75111e-07 x259 * x744
   - 7.75111e-07 x259 * x765 - 7.75111e-07 x259 * x766
   - 7.75111e-07 x259 * x767 - 7.75111e-07 x259 * x768
   + 7.75111e-07 x259 * x861 + 7.75111e-07 x259 * x862
   + 7.75111e-07 x259 * x863 + 7.75111e-07 x259 * x864
   + 7.75111e-07 x259 * x867 + 7.75111e-07 x259 * x868
   + 7.75111e-07 x259 * x869 + 7.75111e-07 x259 * x870
   + 7.75111e-07 x259 * x873 + 7.75111e-07 x259 * x874
   + 7.75111e-07 x259 * x875 + 7.75111e-07 x259 * x876
   + 7.75111e-07 x259 * x879 + 7.75111e-07 x259 * x880
   + 7.75111e-07 x259 * x881 + 7.75111e-07 x259 * x882
   + 1.62189e-12 x260 * x273 + 8.09768e-13 x260 * x274
   + 6.42626e-13 x260 * x275 + 5.10563e-13 x260 * x276
   - 6.15822e-07 x260 * x741 - 6.15822e-07 x260 * x742
   - 6.15822e-07 x260 * x743 - 6.15822e-07 x260 * x744
   - 6.15822e-07 x260 * x765 - 6.15822e-07 x260 * x766
   - 6.15822e-07 x260 * x767 - 6.15822e-07 x260 * x768
   + 6.15822e-07 x260 * x861 + 6.15822e-07 x260 * x862
   + 6.15822e-07 x260 * x863 + 6.15822e-07 x260 * x864
   + 6.15822e-07 x260 * x867 + 6.15822e-07 x260 * x868
   + 6.15822e-07 x260 * x869 + 6.15822e-07 x260 * x870
   + 6.15822e-07 x260 * x873 + 6.15822e-07 x260 * x874
   + 6.15822e-07 x260 * x875 + 6.15822e-07 x260 * x876
   + 6.15822e-07 x260 * x879 + 6.15822e-07 x260 * x880
   + 6.15822e-07 x260 * x881 + 6.15822e-07 x260 * x882 + 6.9364e-12 x273 ^2
   + 6.92631e-12 x273 * x274 + 5.49667e-12 x273 * x275
   + 4.36708e-12 x273 * x276 - 5.26741e-06 x273 * x741
   - 5.26741e-06 x273 * x742 - 5.26741e-06 x273 * x743
   - 5.26741e-06 x273 * x744 - 5.26741e-06 x273 * x765
   - 5.26741e-06 x273 * x766 - 5.26741e-06 x273 * x767
   - 5.26741e-06 x273 * x768 + 5.26741e-06 x273 * x861
   + 5.26741e-06 x273 * x862 + 5.26741e-06 x273 * x863
   + 5.26741e-06 x273 * x864 + 5.26741e-06 x273 * x867
   + 5.26741e-06 x273 * x868 + 5.26741e-06 x273 * x869
   + 5.26741e-06 x273 * x870 + 5.26741e-06 x273 * x873
   + 5.26741e-06 x273 * x874 + 5.26741e-06 x273 * x875
   + 5.26741e-06 x273 * x876 + 5.26741e-06 x273 * x879
   + 5.26741e-06 x273 * x880 + 5.26741e-06 x273 * x881
   + 5.26741e-06 x273 * x882 + 1.72906e-12 x274 ^2
   + 2.74434e-12 x274 * x275 + 2.18037e-12 x274 * x276
   - 2.62988e-06 x274 * x741 - 2.62988e-06 x274 * x742
   - 2.62988e-06 x274 * x743 - 2.62988e-06 x274 * x744
   - 2.62988e-06 x274 * x765 - 2.62988e-06 x274 * x766
   - 2.62988e-06 x274 * x767 - 2.62988e-06 x274 * x768
   + 2.62988e-06 x274 * x861 + 2.62988e-06 x274 * x862
   + 2.62988e-06 x274 * x863 + 2.62988e-06 x274 * x864
   + 2.62988e-06 x274 * x867 + 2.62988e-06 x274 * x868
   + 2.62988e-06 x274 * x869 + 2.62988e-06 x274 * x870
   + 2.62988e-06 x274 * x873 + 2.62988e-06 x274 * x874
   + 2.62988e-06 x274 * x875 + 2.62988e-06 x274 * x876
   + 2.62988e-06 x274 * x879 + 2.62988e-06 x274 * x880
   + 2.62988e-06 x274 * x881 + 2.62988e-06 x274 * x882
   + 1.08894e-12 x275 ^2 + 1.73032e-12 x275 * x276
   - 2.08705e-06 x275 * x741 - 2.08705e-06 x275 * x742
   - 2.08705e-06 x275 * x743 - 2.08705e-06 x275 * x744
   - 2.08705e-06 x275 * x765 - 2.08705e-06 x275 * x766
   - 2.08705e-06 x275 * x767 - 2.08705e-06 x275 * x768
   + 2.08705e-06 x275 * x861 + 2.08705e-06 x275 * x862
   + 2.08705e-06 x275 * x863 + 2.08705e-06 x275 * x864
   + 2.08705e-06 x275 * x867 + 2.08705e-06 x275 * x868
   + 2.08705e-06 x275 * x869 + 2.08705e-06 x275 * x870
   + 2.08705e-06 x275 * x873 + 2.08705e-06 x275 * x874
   + 2.08705e-06 x275 * x875 + 2.08705e-06 x275 * x876
   + 2.08705e-06 x275 * x879 + 2.08705e-06 x275 * x880
   + 2.08705e-06 x275 * x881 + 2.08705e-06 x275 * x882
   + 6.87367e-13 x276 ^2 - 1.65815e-06 x276 * x741
   - 1.65815e-06 x276 * x742 - 1.65815e-06 x276 * x743
   - 1.65815e-06 x276 * x744 - 1.65815e-06 x276 * x765
   - 1.65815e-06 x276 * x766 - 1.65815e-06 x276 * x767
   - 1.65815e-06 x276 * x768 + 1.65815e-06 x276 * x861
   + 1.65815e-06 x276 * x862 + 1.65815e-06 x276 * x863
   + 1.65815e-06 x276 * x864 + 1.65815e-06 x276 * x867
   + 1.65815e-06 x276 * x868 + 1.65815e-06 x276 * x869
   + 1.65815e-06 x276 * x870 + 1.65815e-06 x276 * x873
   + 1.65815e-06 x276 * x874 + 1.65815e-06 x276 * x875
   + 1.65815e-06 x276 * x876 + 1.65815e-06 x276 * x879
   + 1.65815e-06 x276 * x880 + 1.65815e-06 x276 * x881
   + 1.65815e-06 x276 * x882 + x741 ^2 + 2 x741 * x742 + 2 x741 * x743
   + 2 x741 * x744 + 2 x741 * x765 + 2 x741 * x766 + 2 x741 * x767
   + 2 x741 * x768 - 2 x741 * x861 - 2 x741 * x862 - 2 x741 * x863
   - 2 x741 * x864 - 2 x741 * x867 - 2 x741 * x868 - 2 x741 * x869
   - 2 x741 * x870 - 2 x741 * x873 - 2 x741 * x874 - 2 x741 * x875
   - 2 x741 * x876 - 2 x741 * x879 - 2 x741 * x880 - 2 x741 * x881
   - 2 x741 * x882 + x742 ^2 + 2 x742 * x743 + 2 x742 * x744
   + 2 x742 * x765 + 2 x742 * x766 + 2 x742 * x767 + 2 x742 * x768
   - 2 x742 * x861 - 2 x742 * x862 - 2 x742 * x863 - 2 x742 * x864
   - 2 x742 * x867 - 2 x742 * x868 - 2 x742 * x869 - 2 x742 * x870
   - 2 x742 * x873 - 2 x742 * x874 - 2 x742 * x875 - 2 x742 * x876
   - 2 x742 * x879 - 2 x742 * x880 - 2 x742 * x881 - 2 x742 * x882
   + x743 ^2 + 2 x743 * x744 + 2 x743 * x765 + 2 x743 * x766
   + 2 x743 * x767 + 2 x743 * x768 - 2 x743 * x861 - 2 x743 * x862
   - 2 x743 * x863 - 2 x743 * x864 - 2 x743 * x867 - 2 x743 * x868
   - 2 x743 * x869 - 2 x743 * x870 - 2 x743 * x873 - 2 x743 * x874
   - 2 x743 * x875 - 2 x743 * x876 - 2 x743 * x879 - 2 x743 * x880
   - 2 x743 * x881 - 2 x743 * x882 + x744 ^2 + 2 x744 * x765
   + 2 x744 * x766 + 2 x744 * x767 + 2 x744 * x768 - 2 x744 * x861
   - 2 x744 * x862 - 2 x744 * x863 - 2 x744 * x864 - 2 x744 * x867
   - 2 x744 * x868 - 2 x744 * x869 - 2 x744 * x870 - 2 x744 * x873
   - 2 x744 * x874 - 2 x744 * x875 - 2 x744 * x876 - 2 x744 * x879
   - 2 x744 * x880 - 2 x744 * x881 - 2 x744 * x882 + x765 ^2
   + 2 x765 * x766 + 2 x765 * x767 + 2 x765 * x768 - 2 x765 * x861
   - 2 x765 * x862 - 2 x765 * x863 - 2 x765 * x864 - 2 x765 * x867
   - 2 x765 * x868 - 2 x765 * x869 - 2 x765 * x870 - 2 x765 * x873
   - 2 x765 * x874 - 2 x765 * x875 - 2 x765 * x876 - 2 x765 * x879
   - 2 x765 * x880 - 2 x765 * x881 - 2 x765 * x882 + x766 ^2
   + 2 x766 * x767 + 2 x766 * x768 - 2 x766 * x861 - 2 x766 * x862
   - 2 x766 * x863 - 2 x766 * x864 - 2 x766 * x867 - 2 x766 * x868
   - 2 x766 * x869 - 2 x766 * x870 - 2 x766 * x873 - 2 x766 * x874
   - 2 x766 * x875 - 2 x766 * x876 - 2 x766 * x879 - 2 x766 * x880
   - 2 x766 * x881 - 2 x766 * x882 + x767 ^2 + 2 x767 * x768
   - 2 x767 * x861 - 2 x767 * x862 - 2 x767 * x863 - 2 x767 * x864
   - 2 x767 * x867 - 2 x767 * x868 - 2 x767 * x869 - 2 x767 * x870
   - 2 x767 * x873 - 2 x767 * x874 - 2 x767 * x875 - 2 x767 * x876
   - 2 x767 * x879 - 2 x767 * x880 - 2 x767 * x881 - 2 x767 * x882
   + x768 ^2 - 2 x768 * x861 - 2 x768 * x862 - 2 x768 * x863
   - 2 x768 * x864 - 2 x768 * x867 - 2 x768 * x868 - 2 x768 * x869
   - 2 x768 * x870 - 2 x768 * x873 - 2 x768 * x874 - 2 x768 * x875
   - 2 x768 * x876 - 2 x768 * x879 - 2 x768 * x880 - 2 x768 * x881
   - 2 x768 * x882 + x861 ^2 + 2 x861 * x862 + 2 x861 * x863
   + 2 x861 * x864 + 2 x861 * x867 + 2 x861 * x868 + 2 x861 * x869
   + 2 x861 * x870 + 2 x861 * x873 + 2 x861 * x874 + 2 x861 * x875
   + 2 x861 * x876 + 2 x861 * x879 + 2 x861 * x880 + 2 x861 * x881
   + 2 x861 * x882 + x862 ^2 + 2 x862 * x863 + 2 x862 * x864
   + 2 x862 * x867 + 2 x862 * x868 + 2 x862 * x869 + 2 x862 * x870
   + 2 x862 * x873 + 2 x862 * x874 + 2 x862 * x875 + 2 x862 * x876
   + 2 x862 * x879 + 2 x862 * x880 + 2 x862 * x881 + 2 x862 * x882
   + x863 ^2 + 2 x863 * x864 + 2 x863 * x867 + 2 x863 * x868
   + 2 x863 * x869 + 2 x863 * x870 + 2 x863 * x873 + 2 x863 * x874
   + 2 x863 * x875 + 2 x863 * x876 + 2 x863 * x879 + 2 x863 * x880
   + 2 x863 * x881 + 2 x863 * x882 + x864 ^2 + 2 x864 * x867
   + 2 x864 * x868 + 2 x864 * x869 + 2 x864 * x870 + 2 x864 * x873
   + 2 x864 * x874 + 2 x864 * x875 + 2 x864 * x876 + 2 x864 * x879
   + 2 x864 * x880 + 2 x864 * x881 + 2 x864 * x882 + x867 ^2
   + 2 x867 * x868 + 2 x867 * x869 + 2 x867 * x870 + 2 x867 * x873
   + 2 x867 * x874 + 2 x867 * x875 + 2 x867 * x876 + 2 x867 * x879
   + 2 x867 * x880 + 2 x867 * x881 + 2 x867 * x882 + x868 ^2
   + 2 x868 * x869 + 2 x868 * x870 + 2 x868 * x873 + 2 x868 * x874
   + 2 x868 * x875 + 2 x868 * x876 + 2 x868 * x879 + 2 x868 * x880
   + 2 x868 * x881 + 2 x868 * x882 + x869 ^2 + 2 x869 * x870
   + 2 x869 * x873 + 2 x869 * x874 + 2 x869 * x875 + 2 x869 * x876
   + 2 x869 * x879 + 2 x869 * x880 + 2 x869 * x881 + 2 x869 * x882
   + x870 ^2 + 2 x870 * x873 + 2 x870 * x874 + 2 x870 * x875
   + 2 x870 * x876 + 2 x870 * x879 + 2 x870 * x880 + 2 x870 * x881
   + 2 x870 * x882 + x873 ^2 + 2 x873 * x874 + 2 x873 * x875
   + 2 x873 * x876 + 2 x873 * x879 + 2 x873 * x880 + 2 x873 * x881
   + 2 x873 * x882 + x874 ^2 + 2 x874 * x875 + 2 x874 * x876
   + 2 x874 * x879 + 2 x874 * x880 + 2 x874 * x881 + 2 x874 * x882
   + x875 ^2 + 2 x875 * x876 + 2 x875 * x879 + 2 x875 * x880
   + 2 x875 * x881 + 2 x875 * x882 + x876 ^2 + 2 x876 * x879
   + 2 x876 * x880 + 2 x876 * x881 + 2 x876 * x882 + x879 ^2
   + 2 x879 * x880 + 2 x879 * x881 + 2 x879 * x882 + x880 ^2
   + 2 x880 * x881 + 2 x880 * x882 + x881 ^2 + 2 x881 * x882 + x882 ^2
   + x1581 ^2 + 2 x1581 * x1582 + 2 x1581 * x1583 + 2 x1581 * x1584
   + 2 x1581 * x1587 + 2 x1581 * x1588 + 2 x1581 * x1589 + 2 x1581 * x1590
   + 2 x1581 * x1593 + 2 x1581 * x1594 + 2 x1581 * x1595 + 2 x1581 * x1596
   + 2 x1581 * x1599 + 2 x1581 * x1600 + 2 x1581 * x1601 + 2 x1581 * x1602
   + x1582 ^2 + 2 x1582 * x1583 + 2 x1582 * x1584 + 2 x1582 * x1587
   + 2 x1582 * x1588 + 2 x1582 * x1589 + 2 x1582 * x1590 + 2 x1582 * x1593
   + 2 x1582 * x1594 + 2 x1582 * x1595 + 2 x1582 * x1596 + 2 x1582 * x1599
   + 2 x1582 * x1600 + 2 x1582 * x1601 + 2 x1582 * x1602 + x1583 ^2
   + 2 x1583 * x1584 + 2 x1583 * x1587 + 2 x1583 * x1588 + 2 x1583 * x1589
   + 2 x1583 * x1590 + 2 x1583 * x1593 + 2 x1583 * x1594 + 2 x1583 * x1595
   + 2 x1583 * x1596 + 2 x1583 * x1599 + 2 x1583 * x1600 + 2 x1583 * x1601
   + 2 x1583 * x1602 + x1584 ^2 + 2 x1584 * x1587 + 2 x1584 * x1588
   + 2 x1584 * x1589 + 2 x1584 * x1590 + 2 x1584 * x1593 + 2 x1584 * x1594
   + 2 x1584 * x1595 + 2 x1584 * x1596 + 2 x1584 * x1599 + 2 x1584 * x1600
   + 2 x1584 * x1601 + 2 x1584 * x1602 + x1587 ^2 + 2 x1587 * x1588
   + 2 x1587 * x1589 + 2 x1587 * x1590 + 2 x1587 * x1593 + 2 x1587 * x1594
   + 2 x1587 * x1595 + 2 x1587 * x1596 + 2 x1587 * x1599 + 2 x1587 * x1600
   + 2 x1587 * x1601 + 2 x1587 * x1602 + x1588 ^2 + 2 x1588 * x1589
   + 2 x1588 * x1590 + 2 x1588 * x1593 + 2 x1588 * x1594 + 2 x1588 * x1595
   + 2 x1588 * x1596 + 2 x1588 * x1599 + 2 x1588 * x1600 + 2 x1588 * x1601
   + 2 x1588 * x1602 + x1589 ^2 + 2 x1589 * x1590 + 2 x1589 * x1593
   + 2 x1589 * x1594 + 2 x1589 * x1595 + 2 x1589 * x1596 + 2 x1589 * x1599
   + 2 x1589 * x1600 + 2 x1589 * x1601 + 2 x1589 * x1602 + x1590 ^2
   + 2 x1590 * x1593 + 2 x1590 * x1594 + 2 x1590 * x1595 + 2 x1590 * x1596
   + 2 x1590 * x1599 + 2 x1590 * x1600 + 2 x1590 * x1601 + 2 x1590 * x1602
   + x1593 ^2 + 2 x1593 * x1594 + 2 x1593 * x1595 + 2 x1593 * x1596
   + 2 x1593 * x1599 + 2 x1593 * x1600 + 2 x1593 * x1601 + 2 x1593 * x1602
   + x1594 ^2 + 2 x1594 * x1595 + 2 x1594 * x1596 + 2 x1594 * x1599
   + 2 x1594 * x1600 + 2 x1594 * x1601 + 2 x1594 * x1602 + x1595 ^2
   + 2 x1595 * x1596 + 2 x1595 * x1599 + 2 x1595 * x1600 + 2 x1595 * x1601
   + 2 x1595 * x1602 + x1596 ^2 + 2 x1596 * x1599 + 2 x1596 * x1600
   + 2 x1596 * x1601 + 2 x1596 * x1602 + x1599 ^2 + 2 x1599 * x1600
   + 2 x1599 * x1601 + 2 x1599 * x1602 + x1600 ^2 + 2 x1600 * x1601
   + 2 x1600 * x1602 + x1601 ^2 + 2 x1601 * x1602 + x1602 ^2 - x2998 ^2 ]
   <= 0
 c_u_x2999_: [ 6.33843e-12 x261 ^2 + 6.32922e-12 x261 * x262
   + 5.02282e-12 x261 * x263 + 3.99061e-12 x261 * x264
   + 1.26769e-11 x261 * x277 + 6.32922e-12 x261 * x278
   + 5.02282e-12 x261 * x279 + 3.99061e-12 x261 * x280
   - 5.03525e-06 x261 * x747 - 5.03525e-06 x261 * x748
   - 5.03525e-06 x261 * x749 - 5.03525e-06 x261 * x750
   - 5.03525e-06 x261 * x771 - 5.03525e-06 x261 * x772
   - 5.03525e-06 x261 * x773 - 5.03525e-06 x261 * x774
   + 5.03525e-06 x261 * x885 + 5.03525e-06 x261 * x886
   + 5.03525e-06 x261 * x887 + 5.03525e-06 x261 * x888
   + 5.03525e-06 x261 * x891 + 5.03525e-06 x261 * x892
   + 5.03525e-06 x261 * x893 + 5.03525e-06 x261 * x894
   + 5.03525e-06 x261 * x897 + 5.03525e-06 x261 * x898
   + 5.03525e-06 x261 * x899 + 5.03525e-06 x261 * x900
   + 5.03525e-06 x261 * x903 + 5.03525e-06 x261 * x904
   + 5.03525e-06 x261 * x905 + 5.03525e-06 x261 * x906 + 1.58e-12 x262 ^2
   + 2.50776e-12 x262 * x263 + 1.9924e-12 x262 * x264
   + 6.32922e-12 x262 * x277 + 3.16001e-12 x262 * x278
   + 2.50776e-12 x262 * x279 + 1.9924e-12 x262 * x280
   - 2.51396e-06 x262 * x747 - 2.51396e-06 x262 * x748
   - 2.51396e-06 x262 * x749 - 2.51396e-06 x262 * x750
   - 2.51396e-06 x262 * x771 - 2.51396e-06 x262 * x772
   - 2.51396e-06 x262 * x773 - 2.51396e-06 x262 * x774
   + 2.51396e-06 x262 * x885 + 2.51396e-06 x262 * x886
   + 2.51396e-06 x262 * x887 + 2.51396e-06 x262 * x888
   + 2.51396e-06 x262 * x891 + 2.51396e-06 x262 * x892
   + 2.51396e-06 x262 * x893 + 2.51396e-06 x262 * x894
   + 2.51396e-06 x262 * x897 + 2.51396e-06 x262 * x898
   + 2.51396e-06 x262 * x899 + 2.51396e-06 x262 * x900
   + 2.51396e-06 x262 * x903 + 2.51396e-06 x262 * x904
   + 2.51396e-06 x262 * x905 + 2.51396e-06 x262 * x906 + 9.9507e-13 x263 ^2
   + 1.58116e-12 x263 * x264 + 5.02282e-12 x263 * x277
   + 2.50776e-12 x263 * x278 + 1.99014e-12 x263 * x279
   + 1.58116e-12 x263 * x280 - 1.99506e-06 x263 * x747
   - 1.99506e-06 x263 * x748 - 1.99506e-06 x263 * x749
   - 1.99506e-06 x263 * x750 - 1.99506e-06 x263 * x771
   - 1.99506e-06 x263 * x772 - 1.99506e-06 x263 * x773
   - 1.99506e-06 x263 * x774 + 1.99506e-06 x263 * x885
   + 1.99506e-06 x263 * x886 + 1.99506e-06 x263 * x887
   + 1.99506e-06 x263 * x888 + 1.99506e-06 x263 * x891
   + 1.99506e-06 x263 * x892 + 1.99506e-06 x263 * x893
   + 1.99506e-06 x263 * x894 + 1.99506e-06 x263 * x897
   + 1.99506e-06 x263 * x898 + 1.99506e-06 x263 * x899
   + 1.99506e-06 x263 * x900 + 1.99506e-06 x263 * x903
   + 1.99506e-06 x263 * x904 + 1.99506e-06 x263 * x905
   + 1.99506e-06 x263 * x906 + 6.28111e-13 x264 ^2
   + 3.99061e-12 x264 * x277 + 1.9924e-12 x264 * x278
   + 1.58116e-12 x264 * x279 + 1.25622e-12 x264 * x280
   - 1.58507e-06 x264 * x747 - 1.58507e-06 x264 * x748
   - 1.58507e-06 x264 * x749 - 1.58507e-06 x264 * x750
   - 1.58507e-06 x264 * x771 - 1.58507e-06 x264 * x772
   - 1.58507e-06 x264 * x773 - 1.58507e-06 x264 * x774
   + 1.58507e-06 x264 * x885 + 1.58507e-06 x264 * x886
   + 1.58507e-06 x264 * x887 + 1.58507e-06 x264 * x888
   + 1.58507e-06 x264 * x891 + 1.58507e-06 x264 * x892
   + 1.58507e-06 x264 * x893 + 1.58507e-06 x264 * x894
   + 1.58507e-06 x264 * x897 + 1.58507e-06 x264 * x898
   + 1.58507e-06 x264 * x899 + 1.58507e-06 x264 * x900
   + 1.58507e-06 x264 * x903 + 1.58507e-06 x264 * x904
   + 1.58507e-06 x264 * x905 + 1.58507e-06 x264 * x906
   + 6.33843e-12 x277 ^2 + 6.32922e-12 x277 * x278
   + 5.02282e-12 x277 * x279 + 3.99061e-12 x277 * x280
   - 5.03525e-06 x277 * x747 - 5.03525e-06 x277 * x748
   - 5.03525e-06 x277 * x749 - 5.03525e-06 x277 * x750
   - 5.03525e-06 x277 * x771 - 5.03525e-06 x277 * x772
   - 5.03525e-06 x277 * x773 - 5.03525e-06 x277 * x774
   + 5.03525e-06 x277 * x885 + 5.03525e-06 x277 * x886
   + 5.03525e-06 x277 * x887 + 5.03525e-06 x277 * x888
   + 5.03525e-06 x277 * x891 + 5.03525e-06 x277 * x892
   + 5.03525e-06 x277 * x893 + 5.03525e-06 x277 * x894
   + 5.03525e-06 x277 * x897 + 5.03525e-06 x277 * x898
   + 5.03525e-06 x277 * x899 + 5.03525e-06 x277 * x900
   + 5.03525e-06 x277 * x903 + 5.03525e-06 x277 * x904
   + 5.03525e-06 x277 * x905 + 5.03525e-06 x277 * x906 + 1.58e-12 x278 ^2
   + 2.50776e-12 x278 * x279 + 1.9924e-12 x278 * x280
   - 2.51396e-06 x278 * x747 - 2.51396e-06 x278 * x748
   - 2.51396e-06 x278 * x749 - 2.51396e-06 x278 * x750
   - 2.51396e-06 x278 * x771 - 2.51396e-06 x278 * x772
   - 2.51396e-06 x278 * x773 - 2.51396e-06 x278 * x774
   + 2.51396e-06 x278 * x885 + 2.51396e-06 x278 * x886
   + 2.51396e-06 x278 * x887 + 2.51396e-06 x278 * x888
   + 2.51396e-06 x278 * x891 + 2.51396e-06 x278 * x892
   + 2.51396e-06 x278 * x893 + 2.51396e-06 x278 * x894
   + 2.51396e-06 x278 * x897 + 2.51396e-06 x278 * x898
   + 2.51396e-06 x278 * x899 + 2.51396e-06 x278 * x900
   + 2.51396e-06 x278 * x903 + 2.51396e-06 x278 * x904
   + 2.51396e-06 x278 * x905 + 2.51396e-06 x278 * x906 + 9.9507e-13 x279 ^2
   + 1.58116e-12 x279 * x280 - 1.99506e-06 x279 * x747
   - 1.99506e-06 x279 * x748 - 1.99506e-06 x279 * x749
   - 1.99506e-06 x279 * x750 - 1.99506e-06 x279 * x771
   - 1.99506e-06 x279 * x772 - 1.99506e-06 x279 * x773
   - 1.99506e-06 x279 * x774 + 1.99506e-06 x279 * x885
   + 1.99506e-06 x279 * x886 + 1.99506e-06 x279 * x887
   + 1.99506e-06 x279 * x888 + 1.99506e-06 x279 * x891
   + 1.99506e-06 x279 * x892 + 1.99506e-06 x279 * x893
   + 1.99506e-06 x279 * x894 + 1.99506e-06 x279 * x897
   + 1.99506e-06 x279 * x898 + 1.99506e-06 x279 * x899
   + 1.99506e-06 x279 * x900 + 1.99506e-06 x279 * x903
   + 1.99506e-06 x279 * x904 + 1.99506e-06 x279 * x905
   + 1.99506e-06 x279 * x906 + 6.28111e-13 x280 ^2
   - 1.58507e-06 x280 * x747 - 1.58507e-06 x280 * x748
   - 1.58507e-06 x280 * x749 - 1.58507e-06 x280 * x750
   - 1.58507e-06 x280 * x771 - 1.58507e-06 x280 * x772
   - 1.58507e-06 x280 * x773 - 1.58507e-06 x280 * x774
   + 1.58507e-06 x280 * x885 + 1.58507e-06 x280 * x886
   + 1.58507e-06 x280 * x887 + 1.58507e-06 x280 * x888
   + 1.58507e-06 x280 * x891 + 1.58507e-06 x280 * x892
   + 1.58507e-06 x280 * x893 + 1.58507e-06 x280 * x894
   + 1.58507e-06 x280 * x897 + 1.58507e-06 x280 * x898
   + 1.58507e-06 x280 * x899 + 1.58507e-06 x280 * x900
   + 1.58507e-06 x280 * x903 + 1.58507e-06 x280 * x904
   + 1.58507e-06 x280 * x905 + 1.58507e-06 x280 * x906 + x747 ^2
   + 2 x747 * x748 + 2 x747 * x749 + 2 x747 * x750 + 2 x747 * x771
   + 2 x747 * x772 + 2 x747 * x773 + 2 x747 * x774 - 2 x747 * x885
   - 2 x747 * x886 - 2 x747 * x887 - 2 x747 * x888 - 2 x747 * x891
   - 2 x747 * x892 - 2 x747 * x893 - 2 x747 * x894 - 2 x747 * x897
   - 2 x747 * x898 - 2 x747 * x899 - 2 x747 * x900 - 2 x747 * x903
   - 2 x747 * x904 - 2 x747 * x905 - 2 x747 * x906 + x748 ^2
   + 2 x748 * x749 + 2 x748 * x750 + 2 x748 * x771 + 2 x748 * x772
   + 2 x748 * x773 + 2 x748 * x774 - 2 x748 * x885 - 2 x748 * x886
   - 2 x748 * x887 - 2 x748 * x888 - 2 x748 * x891 - 2 x748 * x892
   - 2 x748 * x893 - 2 x748 * x894 - 2 x748 * x897 - 2 x748 * x898
   - 2 x748 * x899 - 2 x748 * x900 - 2 x748 * x903 - 2 x748 * x904
   - 2 x748 * x905 - 2 x748 * x906 + x749 ^2 + 2 x749 * x750
   + 2 x749 * x771 + 2 x749 * x772 + 2 x749 * x773 + 2 x749 * x774
   - 2 x749 * x885 - 2 x749 * x886 - 2 x749 * x887 - 2 x749 * x888
   - 2 x749 * x891 - 2 x749 * x892 - 2 x749 * x893 - 2 x749 * x894
   - 2 x749 * x897 - 2 x749 * x898 - 2 x749 * x899 - 2 x749 * x900
   - 2 x749 * x903 - 2 x749 * x904 - 2 x749 * x905 - 2 x749 * x906
   + x750 ^2 + 2 x750 * x771 + 2 x750 * x772 + 2 x750 * x773
   + 2 x750 * x774 - 2 x750 * x885 - 2 x750 * x886 - 2 x750 * x887
   - 2 x750 * x888 - 2 x750 * x891 - 2 x750 * x892 - 2 x750 * x893
   - 2 x750 * x894 - 2 x750 * x897 - 2 x750 * x898 - 2 x750 * x899
   - 2 x750 * x900 - 2 x750 * x903 - 2 x750 * x904 - 2 x750 * x905
   - 2 x750 * x906 + x771 ^2 + 2 x771 * x772 + 2 x771 * x773
   + 2 x771 * x774 - 2 x771 * x885 - 2 x771 * x886 - 2 x771 * x887
   - 2 x771 * x888 - 2 x771 * x891 - 2 x771 * x892 - 2 x771 * x893
   - 2 x771 * x894 - 2 x771 * x897 - 2 x771 * x898 - 2 x771 * x899
   - 2 x771 * x900 - 2 x771 * x903 - 2 x771 * x904 - 2 x771 * x905
   - 2 x771 * x906 + x772 ^2 + 2 x772 * x773 + 2 x772 * x774
   - 2 x772 * x885 - 2 x772 * x886 - 2 x772 * x887 - 2 x772 * x888
   - 2 x772 * x891 - 2 x772 * x892 - 2 x772 * x893 - 2 x772 * x894
   - 2 x772 * x897 - 2 x772 * x898 - 2 x772 * x899 - 2 x772 * x900
   - 2 x772 * x903 - 2 x772 * x904 - 2 x772 * x905 - 2 x772 * x906
   + x773 ^2 + 2 x773 * x774 - 2 x773 * x885 - 2 x773 * x886
   - 2 x773 * x887 - 2 x773 * x888 - 2 x773 * x891 - 2 x773 * x892
   - 2 x773 * x893 - 2 x773 * x894 - 2 x773 * x897 - 2 x773 * x898
   - 2 x773 * x899 - 2 x773 * x900 - 2 x773 * x903 - 2 x773 * x904
   - 2 x773 * x905 - 2 x773 * x906 + x774 ^2 - 2 x774 * x885
   - 2 x774 * x886 - 2 x774 * x887 - 2 x774 * x888 - 2 x774 * x891
   - 2 x774 * x892 - 2 x774 * x893 - 2 x774 * x894 - 2 x774 * x897
   - 2 x774 * x898 - 2 x774 * x899 - 2 x774 * x900 - 2 x774 * x903
   - 2 x774 * x904 - 2 x774 * x905 - 2 x774 * x906 + x885 ^2
   + 2 x885 * x886 + 2 x885 * x887 + 2 x885 * x888 + 2 x885 * x891
   + 2 x885 * x892 + 2 x885 * x893 + 2 x885 * x894 + 2 x885 * x897
   + 2 x885 * x898 + 2 x885 * x899 + 2 x885 * x900 + 2 x885 * x903
   + 2 x885 * x904 + 2 x885 * x905 + 2 x885 * x906 + x886 ^2
   + 2 x886 * x887 + 2 x886 * x888 + 2 x886 * x891 + 2 x886 * x892
   + 2 x886 * x893 + 2 x886 * x894 + 2 x886 * x897 + 2 x886 * x898
   + 2 x886 * x899 + 2 x886 * x900 + 2 x886 * x903 + 2 x886 * x904
   + 2 x886 * x905 + 2 x886 * x906 + x887 ^2 + 2 x887 * x888
   + 2 x887 * x891 + 2 x887 * x892 + 2 x887 * x893 + 2 x887 * x894
   + 2 x887 * x897 + 2 x887 * x898 + 2 x887 * x899 + 2 x887 * x900
   + 2 x887 * x903 + 2 x887 * x904 + 2 x887 * x905 + 2 x887 * x906
   + x888 ^2 + 2 x888 * x891 + 2 x888 * x892 + 2 x888 * x893
   + 2 x888 * x894 + 2 x888 * x897 + 2 x888 * x898 + 2 x888 * x899
   + 2 x888 * x900 + 2 x888 * x903 + 2 x888 * x904 + 2 x888 * x905
   + 2 x888 * x906 + x891 ^2 + 2 x891 * x892 + 2 x891 * x893
   + 2 x891 * x894 + 2 x891 * x897 + 2 x891 * x898 + 2 x891 * x899
   + 2 x891 * x900 + 2 x891 * x903 + 2 x891 * x904 + 2 x891 * x905
   + 2 x891 * x906 + x892 ^2 + 2 x892 * x893 + 2 x892 * x894
   + 2 x892 * x897 + 2 x892 * x898 + 2 x892 * x899 + 2 x892 * x900
   + 2 x892 * x903 + 2 x892 * x904 + 2 x892 * x905 + 2 x892 * x906
   + x893 ^2 + 2 x893 * x894 + 2 x893 * x897 + 2 x893 * x898
   + 2 x893 * x899 + 2 x893 * x900 + 2 x893 * x903 + 2 x893 * x904
   + 2 x893 * x905 + 2 x893 * x906 + x894 ^2 + 2 x894 * x897
   + 2 x894 * x898 + 2 x894 * x899 + 2 x894 * x900 + 2 x894 * x903
   + 2 x894 * x904 + 2 x894 * x905 + 2 x894 * x906 + x897 ^2
   + 2 x897 * x898 + 2 x897 * x899 + 2 x897 * x900 + 2 x897 * x903
   + 2 x897 * x904 + 2 x897 * x905 + 2 x897 * x906 + x898 ^2
   + 2 x898 * x899 + 2 x898 * x900 + 2 x898 * x903 + 2 x898 * x904
   + 2 x898 * x905 + 2 x898 * x906 + x899 ^2 + 2 x899 * x900
   + 2 x899 * x903 + 2 x899 * x904 + 2 x899 * x905 + 2 x899 * x906
   + x900 ^2 + 2 x900 * x903 + 2 x900 * x904 + 2 x900 * x905
   + 2 x900 * x906 + x903 ^2 + 2 x903 * x904 + 2 x903 * x905
   + 2 x903 * x906 + x904 ^2 + 2 x904 * x905 + 2 x904 * x906 + x905 ^2
   + 2 x905 * x906 + x906 ^2 + x1605 ^2 + 2 x1605 * x1606 + 2 x1605 * x1607
   + 2 x1605 * x1608 + 2 x1605 * x1611 + 2 x1605 * x1612 + 2 x1605 * x1613
   + 2 x1605 * x1614 + 2 x1605 * x1617 + 2 x1605 * x1618 + 2 x1605 * x1619
   + 2 x1605 * x1620 + 2 x1605 * x1623 + 2 x1605 * x1624 + 2 x1605 * x1625
   + 2 x1605 * x1626 + x1606 ^2 + 2 x1606 * x1607 + 2 x1606 * x1608
   + 2 x1606 * x1611 + 2 x1606 * x1612 + 2 x1606 * x1613 + 2 x1606 * x1614
   + 2 x1606 * x1617 + 2 x1606 * x1618 + 2 x1606 * x1619 + 2 x1606 * x1620
   + 2 x1606 * x1623 + 2 x1606 * x1624 + 2 x1606 * x1625 + 2 x1606 * x1626
   + x1607 ^2 + 2 x1607 * x1608 + 2 x1607 * x1611 + 2 x1607 * x1612
   + 2 x1607 * x1613 + 2 x1607 * x1614 + 2 x1607 * x1617 + 2 x1607 * x1618
   + 2 x1607 * x1619 + 2 x1607 * x1620 + 2 x1607 * x1623 + 2 x1607 * x1624
   + 2 x1607 * x1625 + 2 x1607 * x1626 + x1608 ^2 + 2 x1608 * x1611
   + 2 x1608 * x1612 + 2 x1608 * x1613 + 2 x1608 * x1614 + 2 x1608 * x1617
   + 2 x1608 * x1618 + 2 x1608 * x1619 + 2 x1608 * x1620 + 2 x1608 * x1623
   + 2 x1608 * x1624 + 2 x1608 * x1625 + 2 x1608 * x1626 + x1611 ^2
   + 2 x1611 * x1612 + 2 x1611 * x1613 + 2 x1611 * x1614 + 2 x1611 * x1617
   + 2 x1611 * x1618 + 2 x1611 * x1619 + 2 x1611 * x1620 + 2 x1611 * x1623
   + 2 x1611 * x1624 + 2 x1611 * x1625 + 2 x1611 * x1626 + x1612 ^2
   + 2 x1612 * x1613 + 2 x1612 * x1614 + 2 x1612 * x1617 + 2 x1612 * x1618
   + 2 x1612 * x1619 + 2 x1612 * x1620 + 2 x1612 * x1623 + 2 x1612 * x1624
   + 2 x1612 * x1625 + 2 x1612 * x1626 + x1613 ^2 + 2 x1613 * x1614
   + 2 x1613 * x1617 + 2 x1613 * x1618 + 2 x1613 * x1619 + 2 x1613 * x1620
   + 2 x1613 * x1623 + 2 x1613 * x1624 + 2 x1613 * x1625 + 2 x1613 * x1626
   + x1614 ^2 + 2 x1614 * x1617 + 2 x1614 * x1618 + 2 x1614 * x1619
   + 2 x1614 * x1620 + 2 x1614 * x1623 + 2 x1614 * x1624 + 2 x1614 * x1625
   + 2 x1614 * x1626 + x1617 ^2 + 2 x1617 * x1618 + 2 x1617 * x1619
   + 2 x1617 * x1620 + 2 x1617 * x1623 + 2 x1617 * x1624 + 2 x1617 * x1625
   + 2 x1617 * x1626 + x1618 ^2 + 2 x1618 * x1619 + 2 x1618 * x1620
   + 2 x1618 * x1623 + 2 x1618 * x1624 + 2 x1618 * x1625 + 2 x1618 * x1626
   + x1619 ^2 + 2 x1619 * x1620 + 2 x1619 * x1623 + 2 x1619 * x1624
   + 2 x1619 * x1625 + 2 x1619 * x1626 + x1620 ^2 + 2 x1620 * x1623
   + 2 x1620 * x1624 + 2 x1620 * x1625 + 2 x1620 * x1626 + x1623 ^2
   + 2 x1623 * x1624 + 2 x1623 * x1625 + 2 x1623 * x1626 + x1624 ^2
   + 2 x1624 * x1625 + 2 x1624 * x1626 + x1625 ^2 + 2 x1625 * x1626
   + x1626 ^2 - x3000 ^2 ] <= 0
 c_u_x3001_: [ 8.6705e-12 x265 ^2 + 8.65789e-12 x265 * x266
   + 6.87084e-12 x265 * x267 + 5.45885e-12 x265 * x268
   + 1.3277e-11 x265 * x281 + 6.62884e-12 x265 * x282
   + 5.2606e-12 x265 * x283 + 4.17952e-12 x265 * x284
   - 5.88914e-06 x265 * x753 - 5.88914e-06 x265 * x754
   - 5.88914e-06 x265 * x755 - 5.88914e-06 x265 * x756
   - 5.88914e-06 x265 * x777 - 5.88914e-06 x265 * x778
   - 5.88914e-06 x265 * x779 - 5.88914e-06 x265 * x780
   + 5.88914e-06 x265 * x909 + 5.88914e-06 x265 * x910
   + 5.88914e-06 x265 * x911 + 5.88914e-06 x265 * x912
   + 5.88914e-06 x265 * x915 + 5.88914e-06 x265 * x916
   + 5.88914e-06 x265 * x917 + 5.88914e-06 x265 * x918
   + 5.88914e-06 x265 * x921 + 5.88914e-06 x265 * x922
   + 5.88914e-06 x265 * x923 + 5.88914e-06 x265 * x924
   + 5.88914e-06 x265 * x927 + 5.88914e-06 x265 * x928
   + 5.88914e-06 x265 * x929 + 5.88914e-06 x265 * x930
   + 5.88914e-06 x265 * x933 + 5.88914e-06 x265 * x934
   + 5.88914e-06 x265 * x935 + 5.88914e-06 x265 * x936
   + 2.16133e-12 x266 ^2 + 3.43043e-12 x266 * x267
   + 2.72546e-12 x266 * x268 + 6.62884e-12 x266 * x281
   + 3.3096e-12 x266 * x282 + 2.62648e-12 x266 * x283
   + 2.08672e-12 x266 * x284 - 2.94029e-06 x266 * x753
   - 2.94029e-06 x266 * x754 - 2.94029e-06 x266 * x755
   - 2.94029e-06 x266 * x756 - 2.94029e-06 x266 * x777
   - 2.94029e-06 x266 * x778 - 2.94029e-06 x266 * x779
   - 2.94029e-06 x266 * x780 + 2.94029e-06 x266 * x909
   + 2.94029e-06 x266 * x910 + 2.94029e-06 x266 * x911
   + 2.94029e-06 x266 * x912 + 2.94029e-06 x266 * x915
   + 2.94029e-06 x266 * x916 + 2.94029e-06 x266 * x917
   + 2.94029e-06 x266 * x918 + 2.94029e-06 x266 * x921
   + 2.94029e-06 x266 * x922 + 2.94029e-06 x266 * x923
   + 2.94029e-06 x266 * x924 + 2.94029e-06 x266 * x927
   + 2.94029e-06 x266 * x928 + 2.94029e-06 x266 * x929
   + 2.94029e-06 x266 * x930 + 2.94029e-06 x266 * x933
   + 2.94029e-06 x266 * x934 + 2.94029e-06 x266 * x935
   + 2.94029e-06 x266 * x936 + 1.36118e-12 x267 ^2 + 2.1629e-12 x267 * x268
   + 5.2606e-12 x267 * x281 + 2.62648e-12 x267 * x282
   + 2.08435e-12 x267 * x283 + 1.65601e-12 x267 * x284
   - 2.33339e-06 x267 * x753 - 2.33339e-06 x267 * x754
   - 2.33339e-06 x267 * x755 - 2.33339e-06 x267 * x756
   - 2.33339e-06 x267 * x777 - 2.33339e-06 x267 * x778
   - 2.33339e-06 x267 * x779 - 2.33339e-06 x267 * x780
   + 2.33339e-06 x267 * x909 + 2.33339e-06 x267 * x910
   + 2.33339e-06 x267 * x911 + 2.33339e-06 x267 * x912
   + 2.33339e-06 x267 * x915 + 2.33339e-06 x267 * x916
   + 2.33339e-06 x267 * x917 + 2.33339e-06 x267 * x918
   + 2.33339e-06 x267 * x921 + 2.33339e-06 x267 * x922
   + 2.33339e-06 x267 * x923 + 2.33339e-06 x267 * x924
   + 2.33339e-06 x267 * x927 + 2.33339e-06 x267 * x928
   + 2.33339e-06 x267 * x929 + 2.33339e-06 x267 * x930
   + 2.33339e-06 x267 * x933 + 2.33339e-06 x267 * x934
   + 2.33339e-06 x267 * x935 + 2.33339e-06 x267 * x936
   + 8.59209e-13 x268 ^2 + 4.17952e-12 x268 * x281
   + 2.08672e-12 x268 * x282 + 1.65601e-12 x268 * x283
   + 1.31569e-12 x268 * x284 - 1.85387e-06 x268 * x753
   - 1.85387e-06 x268 * x754 - 1.85387e-06 x268 * x755
   - 1.85387e-06 x268 * x756 - 1.85387e-06 x268 * x777
   - 1.85387e-06 x268 * x778 - 1.85387e-06 x268 * x779
   - 1.85387e-06 x268 * x780 + 1.85387e-06 x268 * x909
   + 1.85387e-06 x268 * x910 + 1.85387e-06 x268 * x911
   + 1.85387e-06 x268 * x912 + 1.85387e-06 x268 * x915
   + 1.85387e-06 x268 * x916 + 1.85387e-06 x268 * x917
   + 1.85387e-06 x268 * x918 + 1.85387e-06 x268 * x921
   + 1.85387e-06 x268 * x922 + 1.85387e-06 x268 * x923
   + 1.85387e-06 x268 * x924 + 1.85387e-06 x268 * x927
   + 1.85387e-06 x268 * x928 + 1.85387e-06 x268 * x929
   + 1.85387e-06 x268 * x930 + 1.85387e-06 x268 * x933
   + 1.85387e-06 x268 * x934 + 1.85387e-06 x268 * x935
   + 1.85387e-06 x268 * x936 + 5.08271e-12 x281 ^2
   + 5.07532e-12 x281 * x282 + 4.02774e-12 x281 * x283
   + 3.20002e-12 x281 * x284 - 4.50897e-06 x281 * x753
   - 4.50897e-06 x281 * x754 - 4.50897e-06 x281 * x755
   - 4.50897e-06 x281 * x756 - 4.50897e-06 x281 * x777
   - 4.50897e-06 x281 * x778 - 4.50897e-06 x281 * x779
   - 4.50897e-06 x281 * x780 + 4.50897e-06 x281 * x909
   + 4.50897e-06 x281 * x910 + 4.50897e-06 x281 * x911
   + 4.50897e-06 x281 * x912 + 4.50897e-06 x281 * x915
   + 4.50897e-06 x281 * x916 + 4.50897e-06 x281 * x917
   + 4.50897e-06 x281 * x918 + 4.50897e-06 x281 * x921
   + 4.50897e-06 x281 * x922 + 4.50897e-06 x281 * x923
   + 4.50897e-06 x281 * x924 + 4.50897e-06 x281 * x927
   + 4.50897e-06 x281 * x928 + 4.50897e-06 x281 * x929
   + 4.50897e-06 x281 * x930 + 4.50897e-06 x281 * x933
   + 4.50897e-06 x281 * x934 + 4.50897e-06 x281 * x935
   + 4.50897e-06 x281 * x936 + 1.26698e-12 x282 ^2
   + 2.01094e-12 x282 * x283 + 1.59768e-12 x282 * x284
   - 2.25121e-06 x282 * x753 - 2.25121e-06 x282 * x754
   - 2.25121e-06 x282 * x755 - 2.25121e-06 x282 * x756
   - 2.25121e-06 x282 * x777 - 2.25121e-06 x282 * x778
   - 2.25121e-06 x282 * x779 - 2.25121e-06 x282 * x780
   + 2.25121e-06 x282 * x909 + 2.25121e-06 x282 * x910
   + 2.25121e-06 x282 * x911 + 2.25121e-06 x282 * x912
   + 2.25121e-06 x282 * x915 + 2.25121e-06 x282 * x916
   + 2.25121e-06 x282 * x917 + 2.25121e-06 x282 * x918
   + 2.25121e-06 x282 * x921 + 2.25121e-06 x282 * x922
   + 2.25121e-06 x282 * x923 + 2.25121e-06 x282 * x924
   + 2.25121e-06 x282 * x927 + 2.25121e-06 x282 * x928
   + 2.25121e-06 x282 * x929 + 2.25121e-06 x282 * x930
   + 2.25121e-06 x282 * x933 + 2.25121e-06 x282 * x934
   + 2.25121e-06 x282 * x935 + 2.25121e-06 x282 * x936
   + 7.97934e-13 x283 ^2 + 1.26791e-12 x283 * x284
   - 1.78654e-06 x283 * x753 - 1.78654e-06 x283 * x754
   - 1.78654e-06 x283 * x755 - 1.78654e-06 x283 * x756
   - 1.78654e-06 x283 * x777 - 1.78654e-06 x283 * x778
   - 1.78654e-06 x283 * x779 - 1.78654e-06 x283 * x780
   + 1.78654e-06 x283 * x909 + 1.78654e-06 x283 * x910
   + 1.78654e-06 x283 * x911 + 1.78654e-06 x283 * x912
   + 1.78654e-06 x283 * x915 + 1.78654e-06 x283 * x916
   + 1.78654e-06 x283 * x917 + 1.78654e-06 x283 * x918
   + 1.78654e-06 x283 * x921 + 1.78654e-06 x283 * x922
   + 1.78654e-06 x283 * x923 + 1.78654e-06 x283 * x924
   + 1.78654e-06 x283 * x927 + 1.78654e-06 x283 * x928
   + 1.78654e-06 x283 * x929 + 1.78654e-06 x283 * x930
   + 1.78654e-06 x283 * x933 + 1.78654e-06 x283 * x934
   + 1.78654e-06 x283 * x935 + 1.78654e-06 x283 * x936
   + 5.03674e-13 x284 ^2 - 1.4194e-06 x284 * x753 - 1.4194e-06 x284 * x754
   - 1.4194e-06 x284 * x755 - 1.4194e-06 x284 * x756
   - 1.4194e-06 x284 * x777 - 1.4194e-06 x284 * x778
   - 1.4194e-06 x284 * x779 - 1.4194e-06 x284 * x780
   + 1.4194e-06 x284 * x909 + 1.4194e-06 x284 * x910
   + 1.4194e-06 x284 * x911 + 1.4194e-06 x284 * x912
   + 1.4194e-06 x284 * x915 + 1.4194e-06 x284 * x916
   + 1.4194e-06 x284 * x917 + 1.4194e-06 x284 * x918
   + 1.4194e-06 x284 * x921 + 1.4194e-06 x284 * x922
   + 1.4194e-06 x284 * x923 + 1.4194e-06 x284 * x924
   + 1.4194e-06 x284 * x927 + 1.4194e-06 x284 * x928
   + 1.4194e-06 x284 * x929 + 1.4194e-06 x284 * x930
   + 1.4194e-06 x284 * x933 + 1.4194e-06 x284 * x934
   + 1.4194e-06 x284 * x935 + 1.4194e-06 x284 * x936 + x753 ^2
   + 2 x753 * x754 + 2 x753 * x755 + 2 x753 * x756 + 2 x753 * x777
   + 2 x753 * x778 + 2 x753 * x779 + 2 x753 * x780 - 2 x753 * x909
   - 2 x753 * x910 - 2 x753 * x911 - 2 x753 * x912 - 2 x753 * x915
   - 2 x753 * x916 - 2 x753 * x917 - 2 x753 * x918 - 2 x753 * x921
   - 2 x753 * x922 - 2 x753 * x923 - 2 x753 * x924 - 2 x753 * x927
   - 2 x753 * x928 - 2 x753 * x929 - 2 x753 * x930 - 2 x753 * x933
   - 2 x753 * x934 - 2 x753 * x935 - 2 x753 * x936 + x754 ^2
   + 2 x754 * x755 + 2 x754 * x756 + 2 x754 * x777 + 2 x754 * x778
   + 2 x754 * x779 + 2 x754 * x780 - 2 x754 * x909 - 2 x754 * x910
   - 2 x754 * x911 - 2 x754 * x912 - 2 x754 * x915 - 2 x754 * x916
   - 2 x754 * x917 - 2 x754 * x918 - 2 x754 * x921 - 2 x754 * x922
   - 2 x754 * x923 - 2 x754 * x924 - 2 x754 * x927 - 2 x754 * x928
   - 2 x754 * x929 - 2 x754 * x930 - 2 x754 * x933 - 2 x754 * x934
   - 2 x754 * x935 - 2 x754 * x936 + x755 ^2 + 2 x755 * x756
   + 2 x755 * x777 + 2 x755 * x778 + 2 x755 * x779 + 2 x755 * x780
   - 2 x755 * x909 - 2 x755 * x910 - 2 x755 * x911 - 2 x755 * x912
   - 2 x755 * x915 - 2 x755 * x916 - 2 x755 * x917 - 2 x755 * x918
   - 2 x755 * x921 - 2 x755 * x922 - 2 x755 * x923 - 2 x755 * x924
   - 2 x755 * x927 - 2 x755 * x928 - 2 x755 * x929 - 2 x755 * x930
   - 2 x755 * x933 - 2 x755 * x934 - 2 x755 * x935 - 2 x755 * x936
   + x756 ^2 + 2 x756 * x777 + 2 x756 * x778 + 2 x756 * x779
   + 2 x756 * x780 - 2 x756 * x909 - 2 x756 * x910 - 2 x756 * x911
   - 2 x756 * x912 - 2 x756 * x915 - 2 x756 * x916 - 2 x756 * x917
   - 2 x756 * x918 - 2 x756 * x921 - 2 x756 * x922 - 2 x756 * x923
   - 2 x756 * x924 - 2 x756 * x927 - 2 x756 * x928 - 2 x756 * x929
   - 2 x756 * x930 - 2 x756 * x933 - 2 x756 * x934 - 2 x756 * x935
   - 2 x756 * x936 + x777 ^2 + 2 x777 * x778 + 2 x777 * x779
   + 2 x777 * x780 - 2 x777 * x909 - 2 x777 * x910 - 2 x777 * x911
   - 2 x777 * x912 - 2 x777 * x915 - 2 x777 * x916 - 2 x777 * x917
   - 2 x777 * x918 - 2 x777 * x921 - 2 x777 * x922 - 2 x777 * x923
   - 2 x777 * x924 - 2 x777 * x927 - 2 x777 * x928 - 2 x777 * x929
   - 2 x777 * x930 - 2 x777 * x933 - 2 x777 * x934 - 2 x777 * x935
   - 2 x777 * x936 + x778 ^2 + 2 x778 * x779 + 2 x778 * x780
   - 2 x778 * x909 - 2 x778 * x910 - 2 x778 * x911 - 2 x778 * x912
   - 2 x778 * x915 - 2 x778 * x916 - 2 x778 * x917 - 2 x778 * x918
   - 2 x778 * x921 - 2 x778 * x922 - 2 x778 * x923 - 2 x778 * x924
   - 2 x778 * x927 - 2 x778 * x928 - 2 x778 * x929 - 2 x778 * x930
   - 2 x778 * x933 - 2 x778 * x934 - 2 x778 * x935 - 2 x778 * x936
   + x779 ^2 + 2 x779 * x780 - 2 x779 * x909 - 2 x779 * x910
   - 2 x779 * x911 - 2 x779 * x912 - 2 x779 * x915 - 2 x779 * x916
   - 2 x779 * x917 - 2 x779 * x918 - 2 x779 * x921 - 2 x779 * x922
   - 2 x779 * x923 - 2 x779 * x924 - 2 x779 * x927 - 2 x779 * x928
   - 2 x779 * x929 - 2 x779 * x930 - 2 x779 * x933 - 2 x779 * x934
   - 2 x779 * x935 - 2 x779 * x936 + x780 ^2 - 2 x780 * x909
   - 2 x780 * x910 - 2 x780 * x911 - 2 x780 * x912 - 2 x780 * x915
   - 2 x780 * x916 - 2 x780 * x917 - 2 x780 * x918 - 2 x780 * x921
   - 2 x780 * x922 - 2 x780 * x923 - 2 x780 * x924 - 2 x780 * x927
   - 2 x780 * x928 - 2 x780 * x929 - 2 x780 * x930 - 2 x780 * x933
   - 2 x780 * x934 - 2 x780 * x935 - 2 x780 * x936 + x909 ^2
   + 2 x909 * x910 + 2 x909 * x911 + 2 x909 * x912 + 2 x909 * x915
   + 2 x909 * x916 + 2 x909 * x917 + 2 x909 * x918 + 2 x909 * x921
   + 2 x909 * x922 + 2 x909 * x923 + 2 x909 * x924 + 2 x909 * x927
   + 2 x909 * x928 + 2 x909 * x929 + 2 x909 * x930 + 2 x909 * x933
   + 2 x909 * x934 + 2 x909 * x935 + 2 x909 * x936 + x910 ^2
   + 2 x910 * x911 + 2 x910 * x912 + 2 x910 * x915 + 2 x910 * x916
   + 2 x910 * x917 + 2 x910 * x918 + 2 x910 * x921 + 2 x910 * x922
   + 2 x910 * x923 + 2 x910 * x924 + 2 x910 * x927 + 2 x910 * x928
   + 2 x910 * x929 + 2 x910 * x930 + 2 x910 * x933 + 2 x910 * x934
   + 2 x910 * x935 + 2 x910 * x936 + x911 ^2 + 2 x911 * x912
   + 2 x911 * x915 + 2 x911 * x916 + 2 x911 * x917 + 2 x911 * x918
   + 2 x911 * x921 + 2 x911 * x922 + 2 x911 * x923 + 2 x911 * x924
   + 2 x911 * x927 + 2 x911 * x928 + 2 x911 * x929 + 2 x911 * x930
   + 2 x911 * x933 + 2 x911 * x934 + 2 x911 * x935 + 2 x911 * x936
   + x912 ^2 + 2 x912 * x915 + 2 x912 * x916 + 2 x912 * x917
   + 2 x912 * x918 + 2 x912 * x921 + 2 x912 * x922 + 2 x912 * x923
   + 2 x912 * x924 + 2 x912 * x927 + 2 x912 * x928 + 2 x912 * x929
   + 2 x912 * x930 + 2 x912 * x933 + 2 x912 * x934 + 2 x912 * x935
   + 2 x912 * x936 + x915 ^2 + 2 x915 * x916 + 2 x915 * x917
   + 2 x915 * x918 + 2 x915 * x921 + 2 x915 * x922 + 2 x915 * x923
   + 2 x915 * x924 + 2 x915 * x927 + 2 x915 * x928 + 2 x915 * x929
   + 2 x915 * x930 + 2 x915 * x933 + 2 x915 * x934 + 2 x915 * x935
   + 2 x915 * x936 + x916 ^2 + 2 x916 * x917 + 2 x916 * x918
   + 2 x916 * x921 + 2 x916 * x922 + 2 x916 * x923 + 2 x916 * x924
   + 2 x916 * x927 + 2 x916 * x928 + 2 x916 * x929 + 2 x916 * x930
   + 2 x916 * x933 + 2 x916 * x934 + 2 x916 * x935 + 2 x916 * x936
   + x917 ^2 + 2 x917 * x918 + 2 x917 * x921 + 2 x917 * x922
   + 2 x917 * x923 + 2 x917 * x924 + 2 x917 * x927 + 2 x917 * x928
   + 2 x917 * x929 + 2 x917 * x930 + 2 x917 * x933 + 2 x917 * x934
   + 2 x917 * x935 + 2 x917 * x936 + x918 ^2 + 2 x918 * x921
   + 2 x918 * x922 + 2 x918 * x923 + 2 x918 * x924 + 2 x918 * x927
   + 2 x918 * x928 + 2 x918 * x929 + 2 x918 * x930 + 2 x918 * x933
   + 2 x918 * x934 + 2 x918 * x935 + 2 x918 * x936 + x921 ^2
   + 2 x921 * x922 + 2 x921 * x923 + 2 x921 * x924 + 2 x921 * x927
   + 2 x921 * x928 + 2 x921 * x929 + 2 x921 * x930 + 2 x921 * x933
   + 2 x921 * x934 + 2 x921 * x935 + 2 x921 * x936 + x922 ^2
   + 2 x922 * x923 + 2 x922 * x924 + 2 x922 * x927 + 2 x922 * x928
   + 2 x922 * x929 + 2 x922 * x930 + 2 x922 * x933 + 2 x922 * x934
   + 2 x922 * x935 + 2 x922 * x936 + x923 ^2 + 2 x923 * x924
   + 2 x923 * x927 + 2 x923 * x928 + 2 x923 * x929 + 2 x923 * x930
   + 2 x923 * x933 + 2 x923 * x934 + 2 x923 * x935 + 2 x923 * x936
   + x924 ^2 + 2 x924 * x927 + 2 x924 * x928 + 2 x924 * x929
   + 2 x924 * x930 + 2 x924 * x933 + 2 x924 * x934 + 2 x924 * x935
   + 2 x924 * x936 + x927 ^2 + 2 x927 * x928 + 2 x927 * x929
   + 2 x927 * x930 + 2 x927 * x933 + 2 x927 * x934 + 2 x927 * x935
   + 2 x927 * x936 + x928 ^2 + 2 x928 * x929 + 2 x928 * x930
   + 2 x928 * x933 + 2 x928 * x934 + 2 x928 * x935 + 2 x928 * x936
   + x929 ^2 + 2 x929 * x930 + 2 x929 * x933 + 2 x929 * x934
   + 2 x929 * x935 + 2 x929 * x936 + x930 ^2 + 2 x930 * x933
   + 2 x930 * x934 + 2 x930 * x935 + 2 x930 * x936 + x933 ^2
   + 2 x933 * x934 + 2 x933 * x935 + 2 x933 * x936 + x934 ^2
   + 2 x934 * x935 + 2 x934 * x936 + x935 ^2 + 2 x935 * x936 + x936 ^2
   + x1629 ^2 + 2 x1629 * x1630 + 2 x1629 * x1631 + 2 x1629 * x1632
   + 2 x1629 * x1635 + 2 x1629 * x1636 + 2 x1629 * x1637 + 2 x1629 * x1638
   + 2 x1629 * x1641 + 2 x1629 * x1642 + 2 x1629 * x1643 + 2 x1629 * x1644
   + 2 x1629 * x1647 + 2 x1629 * x1648 + 2 x1629 * x1649 + 2 x1629 * x1650
   + 2 x1629 * x1653 + 2 x1629 * x1654 + 2 x1629 * x1655 + 2 x1629 * x1656
   + x1630 ^2 + 2 x1630 * x1631 + 2 x1630 * x1632 + 2 x1630 * x1635
   + 2 x1630 * x1636 + 2 x1630 * x1637 + 2 x1630 * x1638 + 2 x1630 * x1641
   + 2 x1630 * x1642 + 2 x1630 * x1643 + 2 x1630 * x1644 + 2 x1630 * x1647
   + 2 x1630 * x1648 + 2 x1630 * x1649 + 2 x1630 * x1650 + 2 x1630 * x1653
   + 2 x1630 * x1654 + 2 x1630 * x1655 + 2 x1630 * x1656 + x1631 ^2
   + 2 x1631 * x1632 + 2 x1631 * x1635 + 2 x1631 * x1636 + 2 x1631 * x1637
   + 2 x1631 * x1638 + 2 x1631 * x1641 + 2 x1631 * x1642 + 2 x1631 * x1643
   + 2 x1631 * x1644 + 2 x1631 * x1647 + 2 x1631 * x1648 + 2 x1631 * x1649
   + 2 x1631 * x1650 + 2 x1631 * x1653 + 2 x1631 * x1654 + 2 x1631 * x1655
   + 2 x1631 * x1656 + x1632 ^2 + 2 x1632 * x1635 + 2 x1632 * x1636
   + 2 x1632 * x1637 + 2 x1632 * x1638 + 2 x1632 * x1641 + 2 x1632 * x1642
   + 2 x1632 * x1643 + 2 x1632 * x1644 + 2 x1632 * x1647 + 2 x1632 * x1648
   + 2 x1632 * x1649 + 2 x1632 * x1650 + 2 x1632 * x1653 + 2 x1632 * x1654
   + 2 x1632 * x1655 + 2 x1632 * x1656 + x1635 ^2 + 2 x1635 * x1636
   + 2 x1635 * x1637 + 2 x1635 * x1638 + 2 x1635 * x1641 + 2 x1635 * x1642
   + 2 x1635 * x1643 + 2 x1635 * x1644 + 2 x1635 * x1647 + 2 x1635 * x1648
   + 2 x1635 * x1649 + 2 x1635 * x1650 + 2 x1635 * x1653 + 2 x1635 * x1654
   + 2 x1635 * x1655 + 2 x1635 * x1656 + x1636 ^2 + 2 x1636 * x1637
   + 2 x1636 * x1638 + 2 x1636 * x1641 + 2 x1636 * x1642 + 2 x1636 * x1643
   + 2 x1636 * x1644 + 2 x1636 * x1647 + 2 x1636 * x1648 + 2 x1636 * x1649
   + 2 x1636 * x1650 + 2 x1636 * x1653 + 2 x1636 * x1654 + 2 x1636 * x1655
   + 2 x1636 * x1656 + x1637 ^2 + 2 x1637 * x1638 + 2 x1637 * x1641
   + 2 x1637 * x1642 + 2 x1637 * x1643 + 2 x1637 * x1644 + 2 x1637 * x1647
   + 2 x1637 * x1648 + 2 x1637 * x1649 + 2 x1637 * x1650 + 2 x1637 * x1653
   + 2 x1637 * x1654 + 2 x1637 * x1655 + 2 x1637 * x1656 + x1638 ^2
   + 2 x1638 * x1641 + 2 x1638 * x1642 + 2 x1638 * x1643 + 2 x1638 * x1644
   + 2 x1638 * x1647 + 2 x1638 * x1648 + 2 x1638 * x1649 + 2 x1638 * x1650
   + 2 x1638 * x1653 + 2 x1638 * x1654 + 2 x1638 * x1655 + 2 x1638 * x1656
   + x1641 ^2 + 2 x1641 * x1642 + 2 x1641 * x1643 + 2 x1641 * x1644
   + 2 x1641 * x1647 + 2 x1641 * x1648 + 2 x1641 * x1649 + 2 x1641 * x1650
   + 2 x1641 * x1653 + 2 x1641 * x1654 + 2 x1641 * x1655 + 2 x1641 * x1656
   + x1642 ^2 + 2 x1642 * x1643 + 2 x1642 * x1644 + 2 x1642 * x1647
   + 2 x1642 * x1648 + 2 x1642 * x1649 + 2 x1642 * x1650 + 2 x1642 * x1653
   + 2 x1642 * x1654 + 2 x1642 * x1655 + 2 x1642 * x1656 + x1643 ^2
   + 2 x1643 * x1644 + 2 x1643 * x1647 + 2 x1643 * x1648 + 2 x1643 * x1649
   + 2 x1643 * x1650 + 2 x1643 * x1653 + 2 x1643 * x1654 + 2 x1643 * x1655
   + 2 x1643 * x1656 + x1644 ^2 + 2 x1644 * x1647 + 2 x1644 * x1648
   + 2 x1644 * x1649 + 2 x1644 * x1650 + 2 x1644 * x1653 + 2 x1644 * x1654
   + 2 x1644 * x1655 + 2 x1644 * x1656 + x1647 ^2 + 2 x1647 * x1648
   + 2 x1647 * x1649 + 2 x1647 * x1650 + 2 x1647 * x1653 + 2 x1647 * x1654
   + 2 x1647 * x1655 + 2 x1647 * x1656 + x1648 ^2 + 2 x1648 * x1649
   + 2 x1648 * x1650 + 2 x1648 * x1653 + 2 x1648 * x1654 + 2 x1648 * x1655
   + 2 x1648 * x1656 + x1649 ^2 + 2 x1649 * x1650 + 2 x1649 * x1653
   + 2 x1649 * x1654 + 2 x1649 * x1655 + 2 x1649 * x1656 + x1650 ^2
   + 2 x1650 * x1653 + 2 x1650 * x1654 + 2 x1650 * x1655 + 2 x1650 * x1656
   + x1653 ^2 + 2 x1653 * x1654 + 2 x1653 * x1655 + 2 x1653 * x1656
   + x1654 ^2 + 2 x1654 * x1655 + 2 x1654 * x1656 + x1655 ^2
   + 2 x1655 * x1656 + x1656 ^2 - x3002 ^2 ] <= 0
 c_u_x3003_: [ 1.3215e-11 x269 ^2 + 1.31958e-11 x269 * x270
   + 1.04721e-11 x269 * x271 + 8.32005e-12 x269 * x272
   + 1.95567e-11 x269 * x285 + 9.76412e-12 x269 * x286
   + 7.74874e-12 x269 * x287 + 6.15634e-12 x269 * x288
   - 7.2705e-06 x269 * x759 - 7.2705e-06 x269 * x760
   - 7.2705e-06 x269 * x761 - 7.2705e-06 x269 * x762
   - 7.2705e-06 x269 * x783 - 7.2705e-06 x269 * x784
   - 7.2705e-06 x269 * x785 - 7.2705e-06 x269 * x786
   + 7.2705e-06 x269 * x939 + 7.2705e-06 x269 * x940
   + 7.2705e-06 x269 * x941 + 7.2705e-06 x269 * x942
   + 7.2705e-06 x269 * x945 + 7.2705e-06 x269 * x946
   + 7.2705e-06 x269 * x947 + 7.2705e-06 x269 * x948
   + 7.2705e-06 x269 * x951 + 7.2705e-06 x269 * x952
   + 7.2705e-06 x269 * x953 + 7.2705e-06 x269 * x954
   + 7.2705e-06 x269 * x957 + 7.2705e-06 x269 * x958
   + 7.2705e-06 x269 * x959 + 7.2705e-06 x269 * x960
   + 7.2705e-06 x269 * x963 + 7.2705e-06 x269 * x964
   + 7.2705e-06 x269 * x965 + 7.2705e-06 x269 * x966 + 3.29416e-12 x270 ^2
   + 5.22844e-12 x270 * x271 + 4.15397e-12 x270 * x272
   + 9.76412e-12 x270 * x285 + 4.87496e-12 x270 * x286
   + 3.86873e-12 x270 * x287 + 3.07369e-12 x270 * x288
   - 3.62996e-06 x270 * x759 - 3.62996e-06 x270 * x760
   - 3.62996e-06 x270 * x761 - 3.62996e-06 x270 * x762
   - 3.62996e-06 x270 * x783 - 3.62996e-06 x270 * x784
   - 3.62996e-06 x270 * x785 - 3.62996e-06 x270 * x786
   + 3.62996e-06 x270 * x939 + 3.62996e-06 x270 * x940
   + 3.62996e-06 x270 * x941 + 3.62996e-06 x270 * x942
   + 3.62996e-06 x270 * x945 + 3.62996e-06 x270 * x946
   + 3.62996e-06 x270 * x947 + 3.62996e-06 x270 * x948
   + 3.62996e-06 x270 * x951 + 3.62996e-06 x270 * x952
   + 3.62996e-06 x270 * x953 + 3.62996e-06 x270 * x954
   + 3.62996e-06 x270 * x957 + 3.62996e-06 x270 * x958
   + 3.62996e-06 x270 * x959 + 3.62996e-06 x270 * x960
   + 3.62996e-06 x270 * x963 + 3.62996e-06 x270 * x964
   + 3.62996e-06 x270 * x965 + 3.62996e-06 x270 * x966
   + 2.07463e-12 x271 ^2 + 3.29656e-12 x271 * x272
   + 7.74874e-12 x271 * x285 + 3.86873e-12 x271 * x286
   + 3.0702e-12 x271 * x287 + 2.43926e-12 x271 * x288
   - 2.88071e-06 x271 * x759 - 2.88071e-06 x271 * x760
   - 2.88071e-06 x271 * x761 - 2.88071e-06 x271 * x762
   - 2.88071e-06 x271 * x783 - 2.88071e-06 x271 * x784
   - 2.88071e-06 x271 * x785 - 2.88071e-06 x271 * x786
   + 2.88071e-06 x271 * x939 + 2.88071e-06 x271 * x940
   + 2.88071e-06 x271 * x941 + 2.88071e-06 x271 * x942
   + 2.88071e-06 x271 * x945 + 2.88071e-06 x271 * x946
   + 2.88071e-06 x271 * x947 + 2.88071e-06 x271 * x948
   + 2.88071e-06 x271 * x951 + 2.88071e-06 x271 * x952
   + 2.88071e-06 x271 * x953 + 2.88071e-06 x271 * x954
   + 2.88071e-06 x271 * x957 + 2.88071e-06 x271 * x958
   + 2.88071e-06 x271 * x959 + 2.88071e-06 x271 * x960
   + 2.88071e-06 x271 * x963 + 2.88071e-06 x271 * x964
   + 2.88071e-06 x271 * x965 + 2.88071e-06 x271 * x966
   + 1.30955e-12 x272 ^2 + 6.15634e-12 x272 * x285
   + 3.07369e-12 x272 * x286 + 2.43926e-12 x272 * x287
   + 1.93798e-12 x272 * x288 - 2.28871e-06 x272 * x759
   - 2.28871e-06 x272 * x760 - 2.28871e-06 x272 * x761
   - 2.28871e-06 x272 * x762 - 2.28871e-06 x272 * x783
   - 2.28871e-06 x272 * x784 - 2.28871e-06 x272 * x785
   - 2.28871e-06 x272 * x786 + 2.28871e-06 x272 * x939
   + 2.28871e-06 x272 * x940 + 2.28871e-06 x272 * x941
   + 2.28871e-06 x272 * x942 + 2.28871e-06 x272 * x945
   + 2.28871e-06 x272 * x946 + 2.28871e-06 x272 * x947
   + 2.28871e-06 x272 * x948 + 2.28871e-06 x272 * x951
   + 2.28871e-06 x272 * x952 + 2.28871e-06 x272 * x953
   + 2.28871e-06 x272 * x954 + 2.28871e-06 x272 * x957
   + 2.28871e-06 x272 * x958 + 2.28871e-06 x272 * x959
   + 2.28871e-06 x272 * x960 + 2.28871e-06 x272 * x963
   + 2.28871e-06 x272 * x964 + 2.28871e-06 x272 * x965
   + 2.28871e-06 x272 * x966 + 7.23538e-12 x285 ^2
   + 7.22486e-12 x285 * x286 + 5.7336e-12 x285 * x287
   + 4.55532e-12 x285 * x288 - 5.37973e-06 x285 * x759
   - 5.37973e-06 x285 * x760 - 5.37973e-06 x285 * x761
   - 5.37973e-06 x285 * x762 - 5.37973e-06 x285 * x783
   - 5.37973e-06 x285 * x784 - 5.37973e-06 x285 * x785
   - 5.37973e-06 x285 * x786 + 5.37973e-06 x285 * x939
   + 5.37973e-06 x285 * x940 + 5.37973e-06 x285 * x941
   + 5.37973e-06 x285 * x942 + 5.37973e-06 x285 * x945
   + 5.37973e-06 x285 * x946 + 5.37973e-06 x285 * x947
   + 5.37973e-06 x285 * x948 + 5.37973e-06 x285 * x951
   + 5.37973e-06 x285 * x952 + 5.37973e-06 x285 * x953
   + 5.37973e-06 x285 * x954 + 5.37973e-06 x285 * x957
   + 5.37973e-06 x285 * x958 + 5.37973e-06 x285 * x959
   + 5.37973e-06 x285 * x960 + 5.37973e-06 x285 * x963
   + 5.37973e-06 x285 * x964 + 5.37973e-06 x285 * x965
   + 5.37973e-06 x285 * x966 + 1.80359e-12 x286 ^2
   + 2.86263e-12 x286 * x287 + 2.27435e-12 x286 * x288
   - 2.68596e-06 x286 * x759 - 2.68596e-06 x286 * x760
   - 2.68596e-06 x286 * x761 - 2.68596e-06 x286 * x762
   - 2.68596e-06 x286 * x783 - 2.68596e-06 x286 * x784
   - 2.68596e-06 x286 * x785 - 2.68596e-06 x286 * x786
   + 2.68596e-06 x286 * x939 + 2.68596e-06 x286 * x940
   + 2.68596e-06 x286 * x941 + 2.68596e-06 x286 * x942
   + 2.68596e-06 x286 * x945 + 2.68596e-06 x286 * x946
   + 2.68596e-06 x286 * x947 + 2.68596e-06 x286 * x948
   + 2.68596e-06 x286 * x951 + 2.68596e-06 x286 * x952
   + 2.68596e-06 x286 * x953 + 2.68596e-06 x286 * x954
   + 2.68596e-06 x286 * x957 + 2.68596e-06 x286 * x958
   + 2.68596e-06 x286 * x959 + 2.68596e-06 x286 * x960
   + 2.68596e-06 x286 * x963 + 2.68596e-06 x286 * x964
   + 2.68596e-06 x286 * x965 + 2.68596e-06 x286 * x966
   + 1.13588e-12 x287 ^2 + 1.80491e-12 x287 * x288
   - 2.13156e-06 x287 * x759 - 2.13156e-06 x287 * x760
   - 2.13156e-06 x287 * x761 - 2.13156e-06 x287 * x762
   - 2.13156e-06 x287 * x783 - 2.13156e-06 x287 * x784
   - 2.13156e-06 x287 * x785 - 2.13156e-06 x287 * x786
   + 2.13156e-06 x287 * x939 + 2.13156e-06 x287 * x940
   + 2.13156e-06 x287 * x941 + 2.13156e-06 x287 * x942
   + 2.13156e-06 x287 * x945 + 2.13156e-06 x287 * x946
   + 2.13156e-06 x287 * x947 + 2.13156e-06 x287 * x948
   + 2.13156e-06 x287 * x951 + 2.13156e-06 x287 * x952
   + 2.13156e-06 x287 * x953 + 2.13156e-06 x287 * x954
   + 2.13156e-06 x287 * x957 + 2.13156e-06 x287 * x958
   + 2.13156e-06 x287 * x959 + 2.13156e-06 x287 * x960
   + 2.13156e-06 x287 * x963 + 2.13156e-06 x287 * x964
   + 2.13156e-06 x287 * x965 + 2.13156e-06 x287 * x966
   + 7.16995e-13 x288 ^2 - 1.69351e-06 x288 * x759
   - 1.69351e-06 x288 * x760 - 1.69351e-06 x288 * x761
   - 1.69351e-06 x288 * x762 - 1.69351e-06 x288 * x783
   - 1.69351e-06 x288 * x784 - 1.69351e-06 x288 * x785
   - 1.69351e-06 x288 * x786 + 1.69351e-06 x288 * x939
   + 1.69351e-06 x288 * x940 + 1.69351e-06 x288 * x941
   + 1.69351e-06 x288 * x942 + 1.69351e-06 x288 * x945
   + 1.69351e-06 x288 * x946 + 1.69351e-06 x288 * x947
   + 1.69351e-06 x288 * x948 + 1.69351e-06 x288 * x951
   + 1.69351e-06 x288 * x952 + 1.69351e-06 x288 * x953
   + 1.69351e-06 x288 * x954 + 1.69351e-06 x288 * x957
   + 1.69351e-06 x288 * x958 + 1.69351e-06 x288 * x959
   + 1.69351e-06 x288 * x960 + 1.69351e-06 x288 * x963
   + 1.69351e-06 x288 * x964 + 1.69351e-06 x288 * x965
   + 1.69351e-06 x288 * x966 + x759 ^2 + 2 x759 * x760 + 2 x759 * x761
   + 2 x759 * x762 + 2 x759 * x783 + 2 x759 * x784 + 2 x759 * x785
   + 2 x759 * x786 - 2 x759 * x939 - 2 x759 * x940 - 2 x759 * x941
   - 2 x759 * x942 - 2 x759 * x945 - 2 x759 * x946 - 2 x759 * x947
   - 2 x759 * x948 - 2 x759 * x951 - 2 x759 * x952 - 2 x759 * x953
   - 2 x759 * x954 - 2 x759 * x957 - 2 x759 * x958 - 2 x759 * x959
   - 2 x759 * x960 - 2 x759 * x963 - 2 x759 * x964 - 2 x759 * x965
   - 2 x759 * x966 + x760 ^2 + 2 x760 * x761 + 2 x760 * x762
   + 2 x760 * x783 + 2 x760 * x784 + 2 x760 * x785 + 2 x760 * x786
   - 2 x760 * x939 - 2 x760 * x940 - 2 x760 * x941 - 2 x760 * x942
   - 2 x760 * x945 - 2 x760 * x946 - 2 x760 * x947 - 2 x760 * x948
   - 2 x760 * x951 - 2 x760 * x952 - 2 x760 * x953 - 2 x760 * x954
   - 2 x760 * x957 - 2 x760 * x958 - 2 x760 * x959 - 2 x760 * x960
   - 2 x760 * x963 - 2 x760 * x964 - 2 x760 * x965 - 2 x760 * x966
   + x761 ^2 + 2 x761 * x762 + 2 x761 * x783 + 2 x761 * x784
   + 2 x761 * x785 + 2 x761 * x786 - 2 x761 * x939 - 2 x761 * x940
   - 2 x761 * x941 - 2 x761 * x942 - 2 x761 * x945 - 2 x761 * x946
   - 2 x761 * x947 - 2 x761 * x948 - 2 x761 * x951 - 2 x761 * x952
   - 2 x761 * x953 - 2 x761 * x954 - 2 x761 * x957 - 2 x761 * x958
   - 2 x761 * x959 - 2 x761 * x960 - 2 x761 * x963 - 2 x761 * x964
   - 2 x761 * x965 - 2 x761 * x966 + x762 ^2 + 2 x762 * x783
   + 2 x762 * x784 + 2 x762 * x785 + 2 x762 * x786 - 2 x762 * x939
   - 2 x762 * x940 - 2 x762 * x941 - 2 x762 * x942 - 2 x762 * x945
   - 2 x762 * x946 - 2 x762 * x947 - 2 x762 * x948 - 2 x762 * x951
   - 2 x762 * x952 - 2 x762 * x953 - 2 x762 * x954 - 2 x762 * x957
   - 2 x762 * x958 - 2 x762 * x959 - 2 x762 * x960 - 2 x762 * x963
   - 2 x762 * x964 - 2 x762 * x965 - 2 x762 * x966 + x783 ^2
   + 2 x783 * x784 + 2 x783 * x785 + 2 x783 * x786 - 2 x783 * x939
   - 2 x783 * x940 - 2 x783 * x941 - 2 x783 * x942 - 2 x783 * x945
   - 2 x783 * x946 - 2 x783 * x947 - 2 x783 * x948 - 2 x783 * x951
   - 2 x783 * x952 - 2 x783 * x953 - 2 x783 * x954 - 2 x783 * x957
   - 2 x783 * x958 - 2 x783 * x959 - 2 x783 * x960 - 2 x783 * x963
   - 2 x783 * x964 - 2 x783 * x965 - 2 x783 * x966 + x784 ^2
   + 2 x784 * x785 + 2 x784 * x786 - 2 x784 * x939 - 2 x784 * x940
   - 2 x784 * x941 - 2 x784 * x942 - 2 x784 * x945 - 2 x784 * x946
   - 2 x784 * x947 - 2 x784 * x948 - 2 x784 * x951 - 2 x784 * x952
   - 2 x784 * x953 - 2 x784 * x954 - 2 x784 * x957 - 2 x784 * x958
   - 2 x784 * x959 - 2 x784 * x960 - 2 x784 * x963 - 2 x784 * x964
   - 2 x784 * x965 - 2 x784 * x966 + x785 ^2 + 2 x785 * x786
   - 2 x785 * x939 - 2 x785 * x940 - 2 x785 * x941 - 2 x785 * x942
   - 2 x785 * x945 - 2 x785 * x946 - 2 x785 * x947 - 2 x785 * x948
   - 2 x785 * x951 - 2 x785 * x952 - 2 x785 * x953 - 2 x785 * x954
   - 2 x785 * x957 - 2 x785 * x958 - 2 x785 * x959 - 2 x785 * x960
   - 2 x785 * x963 - 2 x785 * x964 - 2 x785 * x965 - 2 x785 * x966
   + x786 ^2 - 2 x786 * x939 - 2 x786 * x940 - 2 x786 * x941
   - 2 x786 * x942 - 2 x786 * x945 - 2 x786 * x946 - 2 x786 * x947
   - 2 x786 * x948 - 2 x786 * x951 - 2 x786 * x952 - 2 x786 * x953
   - 2 x786 * x954 - 2 x786 * x957 - 2 x786 * x958 - 2 x786 * x959
   - 2 x786 * x960 - 2 x786 * x963 - 2 x786 * x964 - 2 x786 * x965
   - 2 x786 * x966 + x939 ^2 + 2 x939 * x940 + 2 x939 * x941
   + 2 x939 * x942 + 2 x939 * x945 + 2 x939 * x946 + 2 x939 * x947
   + 2 x939 * x948 + 2 x939 * x951 + 2 x939 * x952 + 2 x939 * x953
   + 2 x939 * x954 + 2 x939 * x957 + 2 x939 * x958 + 2 x939 * x959
   + 2 x939 * x960 + 2 x939 * x963 + 2 x939 * x964 + 2 x939 * x965
   + 2 x939 * x966 + x940 ^2 + 2 x940 * x941 + 2 x940 * x942
   + 2 x940 * x945 + 2 x940 * x946 + 2 x940 * x947 + 2 x940 * x948
   + 2 x940 * x951 + 2 x940 * x952 + 2 x940 * x953 + 2 x940 * x954
   + 2 x940 * x957 + 2 x940 * x958 + 2 x940 * x959 + 2 x940 * x960
   + 2 x940 * x963 + 2 x940 * x964 + 2 x940 * x965 + 2 x940 * x966
   + x941 ^2 + 2 x941 * x942 + 2 x941 * x945 + 2 x941 * x946
   + 2 x941 * x947 + 2 x941 * x948 + 2 x941 * x951 + 2 x941 * x952
   + 2 x941 * x953 + 2 x941 * x954 + 2 x941 * x957 + 2 x941 * x958
   + 2 x941 * x959 + 2 x941 * x960 + 2 x941 * x963 + 2 x941 * x964
   + 2 x941 * x965 + 2 x941 * x966 + x942 ^2 + 2 x942 * x945
   + 2 x942 * x946 + 2 x942 * x947 + 2 x942 * x948 + 2 x942 * x951
   + 2 x942 * x952 + 2 x942 * x953 + 2 x942 * x954 + 2 x942 * x957
   + 2 x942 * x958 + 2 x942 * x959 + 2 x942 * x960 + 2 x942 * x963
   + 2 x942 * x964 + 2 x942 * x965 + 2 x942 * x966 + x945 ^2
   + 2 x945 * x946 + 2 x945 * x947 + 2 x945 * x948 + 2 x945 * x951
   + 2 x945 * x952 + 2 x945 * x953 + 2 x945 * x954 + 2 x945 * x957
   + 2 x945 * x958 + 2 x945 * x959 + 2 x945 * x960 + 2 x945 * x963
   + 2 x945 * x964 + 2 x945 * x965 + 2 x945 * x966 + x946 ^2
   + 2 x946 * x947 + 2 x946 * x948 + 2 x946 * x951 + 2 x946 * x952
   + 2 x946 * x953 + 2 x946 * x954 + 2 x946 * x957 + 2 x946 * x958
   + 2 x946 * x959 + 2 x946 * x960 + 2 x946 * x963 + 2 x946 * x964
   + 2 x946 * x965 + 2 x946 * x966 + x947 ^2 + 2 x947 * x948
   + 2 x947 * x951 + 2 x947 * x952 + 2 x947 * x953 + 2 x947 * x954
   + 2 x947 * x957 + 2 x947 * x958 + 2 x947 * x959 + 2 x947 * x960
   + 2 x947 * x963 + 2 x947 * x964 + 2 x947 * x965 + 2 x947 * x966
   + x948 ^2 + 2 x948 * x951 + 2 x948 * x952 + 2 x948 * x953
   + 2 x948 * x954 + 2 x948 * x957 + 2 x948 * x958 + 2 x948 * x959
   + 2 x948 * x960 + 2 x948 * x963 + 2 x948 * x964 + 2 x948 * x965
   + 2 x948 * x966 + x951 ^2 + 2 x951 * x952 + 2 x951 * x953
   + 2 x951 * x954 + 2 x951 * x957 + 2 x951 * x958 + 2 x951 * x959
   + 2 x951 * x960 + 2 x951 * x963 + 2 x951 * x964 + 2 x951 * x965
   + 2 x951 * x966 + x952 ^2 + 2 x952 * x953 + 2 x952 * x954
   + 2 x952 * x957 + 2 x952 * x958 + 2 x952 * x959 + 2 x952 * x960
   + 2 x952 * x963 + 2 x952 * x964 + 2 x952 * x965 + 2 x952 * x966
   + x953 ^2 + 2 x953 * x954 + 2 x953 * x957 + 2 x953 * x958
   + 2 x953 * x959 + 2 x953 * x960 + 2 x953 * x963 + 2 x953 * x964
   + 2 x953 * x965 + 2 x953 * x966 + x954 ^2 + 2 x954 * x957
   + 2 x954 * x958 + 2 x954 * x959 + 2 x954 * x960 + 2 x954 * x963
   + 2 x954 * x964 + 2 x954 * x965 + 2 x954 * x966 + x957 ^2
   + 2 x957 * x958 + 2 x957 * x959 + 2 x957 * x960 + 2 x957 * x963
   + 2 x957 * x964 + 2 x957 * x965 + 2 x957 * x966 + x958 ^2
   + 2 x958 * x959 + 2 x958 * x960 + 2 x958 * x963 + 2 x958 * x964
   + 2 x958 * x965 + 2 x958 * x966 + x959 ^2 + 2 x959 * x960
   + 2 x959 * x963 + 2 x959 * x964 + 2 x959 * x965 + 2 x959 * x966
   + x960 ^2 + 2 x960 * x963 + 2 x960 * x964 + 2 x960 * x965
   + 2 x960 * x966 + x963 ^2 + 2 x963 * x964 + 2 x963 * x965
   + 2 x963 * x966 + x964 ^2 + 2 x964 * x965 + 2 x964 * x966 + x965 ^2
   + 2 x965 * x966 + x966 ^2 + x1659 ^2 + 2 x1659 * x1660 + 2 x1659 * x1661
   + 2 x1659 * x1662 + 2 x1659 * x1665 + 2 x1659 * x1666 + 2 x1659 * x1667
   + 2 x1659 * x1668 + 2 x1659 * x1671 + 2 x1659 * x1672 + 2 x1659 * x1673
   + 2 x1659 * x1674 + 2 x1659 * x1677 + 2 x1659 * x1678 + 2 x1659 * x1679
   + 2 x1659 * x1680 + 2 x1659 * x1683 + 2 x1659 * x1684 + 2 x1659 * x1685
   + 2 x1659 * x1686 + x1660 ^2 + 2 x1660 * x1661 + 2 x1660 * x1662
   + 2 x1660 * x1665 + 2 x1660 * x1666 + 2 x1660 * x1667 + 2 x1660 * x1668
   + 2 x1660 * x1671 + 2 x1660 * x1672 + 2 x1660 * x1673 + 2 x1660 * x1674
   + 2 x1660 * x1677 + 2 x1660 * x1678 + 2 x1660 * x1679 + 2 x1660 * x1680
   + 2 x1660 * x1683 + 2 x1660 * x1684 + 2 x1660 * x1685 + 2 x1660 * x1686
   + x1661 ^2 + 2 x1661 * x1662 + 2 x1661 * x1665 + 2 x1661 * x1666
   + 2 x1661 * x1667 + 2 x1661 * x1668 + 2 x1661 * x1671 + 2 x1661 * x1672
   + 2 x1661 * x1673 + 2 x1661 * x1674 + 2 x1661 * x1677 + 2 x1661 * x1678
   + 2 x1661 * x1679 + 2 x1661 * x1680 + 2 x1661 * x1683 + 2 x1661 * x1684
   + 2 x1661 * x1685 + 2 x1661 * x1686 + x1662 ^2 + 2 x1662 * x1665
   + 2 x1662 * x1666 + 2 x1662 * x1667 + 2 x1662 * x1668 + 2 x1662 * x1671
   + 2 x1662 * x1672 + 2 x1662 * x1673 + 2 x1662 * x1674 + 2 x1662 * x1677
   + 2 x1662 * x1678 + 2 x1662 * x1679 + 2 x1662 * x1680 + 2 x1662 * x1683
   + 2 x1662 * x1684 + 2 x1662 * x1685 + 2 x1662 * x1686 + x1665 ^2
   + 2 x1665 * x1666 + 2 x1665 * x1667 + 2 x1665 * x1668 + 2 x1665 * x1671
   + 2 x1665 * x1672 + 2 x1665 * x1673 + 2 x1665 * x1674 + 2 x1665 * x1677
   + 2 x1665 * x1678 + 2 x1665 * x1679 + 2 x1665 * x1680 + 2 x1665 * x1683
   + 2 x1665 * x1684 + 2 x1665 * x1685 + 2 x1665 * x1686 + x1666 ^2
   + 2 x1666 * x1667 + 2 x1666 * x1668 + 2 x1666 * x1671 + 2 x1666 * x1672
   + 2 x1666 * x1673 + 2 x1666 * x1674 + 2 x1666 * x1677 + 2 x1666 * x1678
   + 2 x1666 * x1679 + 2 x1666 * x1680 + 2 x1666 * x1683 + 2 x1666 * x1684
   + 2 x1666 * x1685 + 2 x1666 * x1686 + x1667 ^2 + 2 x1667 * x1668
   + 2 x1667 * x1671 + 2 x1667 * x1672 + 2 x1667 * x1673 + 2 x1667 * x1674
   + 2 x1667 * x1677 + 2 x1667 * x1678 + 2 x1667 * x1679 + 2 x1667 * x1680
   + 2 x1667 * x1683 + 2 x1667 * x1684 + 2 x1667 * x1685 + 2 x1667 * x1686
   + x1668 ^2 + 2 x1668 * x1671 + 2 x1668 * x1672 + 2 x1668 * x1673
   + 2 x1668 * x1674 + 2 x1668 * x1677 + 2 x1668 * x1678 + 2 x1668 * x1679
   + 2 x1668 * x1680 + 2 x1668 * x1683 + 2 x1668 * x1684 + 2 x1668 * x1685
   + 2 x1668 * x1686 + x1671 ^2 + 2 x1671 * x1672 + 2 x1671 * x1673
   + 2 x1671 * x1674 + 2 x1671 * x1677 + 2 x1671 * x1678 + 2 x1671 * x1679
   + 2 x1671 * x1680 + 2 x1671 * x1683 + 2 x1671 * x1684 + 2 x1671 * x1685
   + 2 x1671 * x1686 + x1672 ^2 + 2 x1672 * x1673 + 2 x1672 * x1674
   + 2 x1672 * x1677 + 2 x1672 * x1678 + 2 x1672 * x1679 + 2 x1672 * x1680
   + 2 x1672 * x1683 + 2 x1672 * x1684 + 2 x1672 * x1685 + 2 x1672 * x1686
   + x1673 ^2 + 2 x1673 * x1674 + 2 x1673 * x1677 + 2 x1673 * x1678
   + 2 x1673 * x1679 + 2 x1673 * x1680 + 2 x1673 * x1683 + 2 x1673 * x1684
   + 2 x1673 * x1685 + 2 x1673 * x1686 + x1674 ^2 + 2 x1674 * x1677
   + 2 x1674 * x1678 + 2 x1674 * x1679 + 2 x1674 * x1680 + 2 x1674 * x1683
   + 2 x1674 * x1684 + 2 x1674 * x1685 + 2 x1674 * x1686 + x1677 ^2
   + 2 x1677 * x1678 + 2 x1677 * x1679 + 2 x1677 * x1680 + 2 x1677 * x1683
   + 2 x1677 * x1684 + 2 x1677 * x1685 + 2 x1677 * x1686 + x1678 ^2
   + 2 x1678 * x1679 + 2 x1678 * x1680 + 2 x1678 * x1683 + 2 x1678 * x1684
   + 2 x1678 * x1685 + 2 x1678 * x1686 + x1679 ^2 + 2 x1679 * x1680
   + 2 x1679 * x1683 + 2 x1679 * x1684 + 2 x1679 * x1685 + 2 x1679 * x1686
   + x1680 ^2 + 2 x1680 * x1683 + 2 x1680 * x1684 + 2 x1680 * x1685
   + 2 x1680 * x1686 + x1683 ^2 + 2 x1683 * x1684 + 2 x1683 * x1685
   + 2 x1683 * x1686 + x1684 ^2 + 2 x1684 * x1685 + 2 x1684 * x1686
   + x1685 ^2 + 2 x1685 * x1686 + x1686 ^2 - x3004 ^2 ] <= 0
 c_u_x3005_: [ 9.56745e-13 x498 ^2 + 9.55354e-13 x498 * x499
   + 7.58162e-13 x498 * x500 + 6.02356e-13 x498 * x501
   + 5.15223e-12 x498 * x514 + 2.57237e-12 x498 * x515
   + 2.04141e-12 x498 * x516 + 1.62189e-12 x498 * x517
   - 1.95627e-06 x498 * x1101 - 1.95627e-06 x498 * x1102
   - 1.95627e-06 x498 * x1103 - 1.95627e-06 x498 * x1104
   - 1.95627e-06 x498 * x1125 - 1.95627e-06 x498 * x1126
   - 1.95627e-06 x498 * x1127 - 1.95627e-06 x498 * x1128
   + 1.95627e-06 x498 * x1221 + 1.95627e-06 x498 * x1222
   + 1.95627e-06 x498 * x1223 + 1.95627e-06 x498 * x1224
   + 1.95627e-06 x498 * x1227 + 1.95627e-06 x498 * x1228
   + 1.95627e-06 x498 * x1229 + 1.95627e-06 x498 * x1230
   + 1.95627e-06 x498 * x1233 + 1.95627e-06 x498 * x1234
   + 1.95627e-06 x498 * x1235 + 1.95627e-06 x498 * x1236
   + 1.95627e-06 x498 * x1239 + 1.95627e-06 x498 * x1240
   + 1.95627e-06 x498 * x1241 + 1.95627e-06 x498 * x1242
   + 2.38491e-13 x499 ^2 + 3.7853e-13 x499 * x500 + 3.0074e-13 x499 * x501
   + 2.57237e-12 x499 * x514 + 1.28431e-12 x499 * x515
   + 1.01922e-12 x499 * x516 + 8.09768e-13 x499 * x517
   - 9.76711e-07 x499 * x1101 - 9.76711e-07 x499 * x1102
   - 9.76711e-07 x499 * x1103 - 9.76711e-07 x499 * x1104
   - 9.76711e-07 x499 * x1125 - 9.76711e-07 x499 * x1126
   - 9.76711e-07 x499 * x1127 - 9.76711e-07 x499 * x1128
   + 9.76711e-07 x499 * x1221 + 9.76711e-07 x499 * x1222
   + 9.76711e-07 x499 * x1223 + 9.76711e-07 x499 * x1224
   + 9.76711e-07 x499 * x1227 + 9.76711e-07 x499 * x1228
   + 9.76711e-07 x499 * x1229 + 9.76711e-07 x499 * x1230
   + 9.76711e-07 x499 * x1233 + 9.76711e-07 x499 * x1234
   + 9.76711e-07 x499 * x1235 + 9.76711e-07 x499 * x1236
   + 9.76711e-07 x499 * x1239 + 9.76711e-07 x499 * x1240
   + 9.76711e-07 x499 * x1241 + 9.76711e-07 x499 * x1242
   + 1.50199e-13 x500 ^2 + 2.38665e-13 x500 * x501
   + 2.04141e-12 x500 * x514 + 1.01922e-12 x500 * x515
   + 8.08848e-13 x500 * x516 + 6.42626e-13 x500 * x517
   - 7.75111e-07 x500 * x1101 - 7.75111e-07 x500 * x1102
   - 7.75111e-07 x500 * x1103 - 7.75111e-07 x500 * x1104
   - 7.75111e-07 x500 * x1125 - 7.75111e-07 x500 * x1126
   - 7.75111e-07 x500 * x1127 - 7.75111e-07 x500 * x1128
   + 7.75111e-07 x500 * x1221 + 7.75111e-07 x500 * x1222
   + 7.75111e-07 x500 * x1223 + 7.75111e-07 x500 * x1224
   + 7.75111e-07 x500 * x1227 + 7.75111e-07 x500 * x1228
   + 7.75111e-07 x500 * x1229 + 7.75111e-07 x500 * x1230
   + 7.75111e-07 x500 * x1233 + 7.75111e-07 x500 * x1234
   + 7.75111e-07 x500 * x1235 + 7.75111e-07 x500 * x1236
   + 7.75111e-07 x500 * x1239 + 7.75111e-07 x500 * x1240
   + 7.75111e-07 x500 * x1241 + 7.75111e-07 x500 * x1242
   + 1.62189e-12 x501 * x514 + 8.09768e-13 x501 * x515
   + 6.42626e-13 x501 * x516 + 5.10563e-13 x501 * x517
   - 6.15822e-07 x501 * x1101 - 6.15822e-07 x501 * x1102
   - 6.15822e-07 x501 * x1103 - 6.15822e-07 x501 * x1104
   - 6.15822e-07 x501 * x1125 - 6.15822e-07 x501 * x1126
   - 6.15822e-07 x501 * x1127 - 6.15822e-07 x501 * x1128
   + 6.15822e-07 x501 * x1221 + 6.15822e-07 x501 * x1222
   + 6.15822e-07 x501 * x1223 + 6.15822e-07 x501 * x1224
   + 6.15822e-07 x501 * x1227 + 6.15822e-07 x501 * x1228
   + 6.15822e-07 x501 * x1229 + 6.15822e-07 x501 * x1230
   + 6.15822e-07 x501 * x1233 + 6.15822e-07 x501 * x1234
   + 6.15822e-07 x501 * x1235 + 6.15822e-07 x501 * x1236
   + 6.15822e-07 x501 * x1239 + 6.15822e-07 x501 * x1240
   + 6.15822e-07 x501 * x1241 + 6.15822e-07 x501 * x1242
   + 6.9364e-12 x514 ^2 + 6.92631e-12 x514 * x515 + 5.49667e-12 x514 * x516
   + 4.36708e-12 x514 * x517 - 5.26741e-06 x514 * x1101
   - 5.26741e-06 x514 * x1102 - 5.26741e-06 x514 * x1103
   - 5.26741e-06 x514 * x1104 - 5.26741e-06 x514 * x1125
   - 5.26741e-06 x514 * x1126 - 5.26741e-06 x514 * x1127
   - 5.26741e-06 x514 * x1128 + 5.26741e-06 x514 * x1221
   + 5.26741e-06 x514 * x1222 + 5.26741e-06 x514 * x1223
   + 5.26741e-06 x514 * x1224 + 5.26741e-06 x514 * x1227
   + 5.26741e-06 x514 * x1228 + 5.26741e-06 x514 * x1229
   + 5.26741e-06 x514 * x1230 + 5.26741e-06 x514 * x1233
   + 5.26741e-06 x514 * x1234 + 5.26741e-06 x514 * x1235
   + 5.26741e-06 x514 * x1236 + 5.26741e-06 x514 * x1239
   + 5.26741e-06 x514 * x1240 + 5.26741e-06 x514 * x1241
   + 5.26741e-06 x514 * x1242 + 1.72906e-12 x515 ^2
   + 2.74434e-12 x515 * x516 + 2.18037e-12 x515 * x517
   - 2.62988e-06 x515 * x1101 - 2.62988e-06 x515 * x1102
   - 2.62988e-06 x515 * x1103 - 2.62988e-06 x515 * x1104
   - 2.62988e-06 x515 * x1125 - 2.62988e-06 x515 * x1126
   - 2.62988e-06 x515 * x1127 - 2.62988e-06 x515 * x1128
   + 2.62988e-06 x515 * x1221 + 2.62988e-06 x515 * x1222
   + 2.62988e-06 x515 * x1223 + 2.62988e-06 x515 * x1224
   + 2.62988e-06 x515 * x1227 + 2.62988e-06 x515 * x1228
   + 2.62988e-06 x515 * x1229 + 2.62988e-06 x515 * x1230
   + 2.62988e-06 x515 * x1233 + 2.62988e-06 x515 * x1234
   + 2.62988e-06 x515 * x1235 + 2.62988e-06 x515 * x1236
   + 2.62988e-06 x515 * x1239 + 2.62988e-06 x515 * x1240
   + 2.62988e-06 x515 * x1241 + 2.62988e-06 x515 * x1242
   + 1.08894e-12 x516 ^2 + 1.73032e-12 x516 * x517
   - 2.08705e-06 x516 * x1101 - 2.08705e-06 x516 * x1102
   - 2.08705e-06 x516 * x1103 - 2.08705e-06 x516 * x1104
   - 2.08705e-06 x516 * x1125 - 2.08705e-06 x516 * x1126
   - 2.08705e-06 x516 * x1127 - 2.08705e-06 x516 * x1128
   + 2.08705e-06 x516 * x1221 + 2.08705e-06 x516 * x1222
   + 2.08705e-06 x516 * x1223 + 2.08705e-06 x516 * x1224
   + 2.08705e-06 x516 * x1227 + 2.08705e-06 x516 * x1228
   + 2.08705e-06 x516 * x1229 + 2.08705e-06 x516 * x1230
   + 2.08705e-06 x516 * x1233 + 2.08705e-06 x516 * x1234
   + 2.08705e-06 x516 * x1235 + 2.08705e-06 x516 * x1236
   + 2.08705e-06 x516 * x1239 + 2.08705e-06 x516 * x1240
   + 2.08705e-06 x516 * x1241 + 2.08705e-06 x516 * x1242
   + 6.87367e-13 x517 ^2 - 1.65815e-06 x517 * x1101
   - 1.65815e-06 x517 * x1102 - 1.65815e-06 x517 * x1103
   - 1.65815e-06 x517 * x1104 - 1.65815e-06 x517 * x1125
   - 1.65815e-06 x517 * x1126 - 1.65815e-06 x517 * x1127
   - 1.65815e-06 x517 * x1128 + 1.65815e-06 x517 * x1221
   + 1.65815e-06 x517 * x1222 + 1.65815e-06 x517 * x1223
   + 1.65815e-06 x517 * x1224 + 1.65815e-06 x517 * x1227
   + 1.65815e-06 x517 * x1228 + 1.65815e-06 x517 * x1229
   + 1.65815e-06 x517 * x1230 + 1.65815e-06 x517 * x1233
   + 1.65815e-06 x517 * x1234 + 1.65815e-06 x517 * x1235
   + 1.65815e-06 x517 * x1236 + 1.65815e-06 x517 * x1239
   + 1.65815e-06 x517 * x1240 + 1.65815e-06 x517 * x1241
   + 1.65815e-06 x517 * x1242 + x1101 ^2 + 2 x1101 * x1102
   + 2 x1101 * x1103 + 2 x1101 * x1104 + 2 x1101 * x1125 + 2 x1101 * x1126
   + 2 x1101 * x1127 + 2 x1101 * x1128 - 2 x1101 * x1221 - 2 x1101 * x1222
   - 2 x1101 * x1223 - 2 x1101 * x1224 - 2 x1101 * x1227 - 2 x1101 * x1228
   - 2 x1101 * x1229 - 2 x1101 * x1230 - 2 x1101 * x1233 - 2 x1101 * x1234
   - 2 x1101 * x1235 - 2 x1101 * x1236 - 2 x1101 * x1239 - 2 x1101 * x1240
   - 2 x1101 * x1241 - 2 x1101 * x1242 + x1102 ^2 + 2 x1102 * x1103
   + 2 x1102 * x1104 + 2 x1102 * x1125 + 2 x1102 * x1126 + 2 x1102 * x1127
   + 2 x1102 * x1128 - 2 x1102 * x1221 - 2 x1102 * x1222 - 2 x1102 * x1223
   - 2 x1102 * x1224 - 2 x1102 * x1227 - 2 x1102 * x1228 - 2 x1102 * x1229
   - 2 x1102 * x1230 - 2 x1102 * x1233 - 2 x1102 * x1234 - 2 x1102 * x1235
   - 2 x1102 * x1236 - 2 x1102 * x1239 - 2 x1102 * x1240 - 2 x1102 * x1241
   - 2 x1102 * x1242 + x1103 ^2 + 2 x1103 * x1104 + 2 x1103 * x1125
   + 2 x1103 * x1126 + 2 x1103 * x1127 + 2 x1103 * x1128 - 2 x1103 * x1221
   - 2 x1103 * x1222 - 2 x1103 * x1223 - 2 x1103 * x1224 - 2 x1103 * x1227
   - 2 x1103 * x1228 - 2 x1103 * x1229 - 2 x1103 * x1230 - 2 x1103 * x1233
   - 2 x1103 * x1234 - 2 x1103 * x1235 - 2 x1103 * x1236 - 2 x1103 * x1239
   - 2 x1103 * x1240 - 2 x1103 * x1241 - 2 x1103 * x1242 + x1104 ^2
   + 2 x1104 * x1125 + 2 x1104 * x1126 + 2 x1104 * x1127 + 2 x1104 * x1128
   - 2 x1104 * x1221 - 2 x1104 * x1222 - 2 x1104 * x1223 - 2 x1104 * x1224
   - 2 x1104 * x1227 - 2 x1104 * x1228 - 2 x1104 * x1229 - 2 x1104 * x1230
   - 2 x1104 * x1233 - 2 x1104 * x1234 - 2 x1104 * x1235 - 2 x1104 * x1236
   - 2 x1104 * x1239 - 2 x1104 * x1240 - 2 x1104 * x1241 - 2 x1104 * x1242
   + x1125 ^2 + 2 x1125 * x1126 + 2 x1125 * x1127 + 2 x1125 * x1128
   - 2 x1125 * x1221 - 2 x1125 * x1222 - 2 x1125 * x1223 - 2 x1125 * x1224
   - 2 x1125 * x1227 - 2 x1125 * x1228 - 2 x1125 * x1229 - 2 x1125 * x1230
   - 2 x1125 * x1233 - 2 x1125 * x1234 - 2 x1125 * x1235 - 2 x1125 * x1236
   - 2 x1125 * x1239 - 2 x1125 * x1240 - 2 x1125 * x1241 - 2 x1125 * x1242
   + x1126 ^2 + 2 x1126 * x1127 + 2 x1126 * x1128 - 2 x1126 * x1221
   - 2 x1126 * x1222 - 2 x1126 * x1223 - 2 x1126 * x1224 - 2 x1126 * x1227
   - 2 x1126 * x1228 - 2 x1126 * x1229 - 2 x1126 * x1230 - 2 x1126 * x1233
   - 2 x1126 * x1234 - 2 x1126 * x1235 - 2 x1126 * x1236 - 2 x1126 * x1239
   - 2 x1126 * x1240 - 2 x1126 * x1241 - 2 x1126 * x1242 + x1127 ^2
   + 2 x1127 * x1128 - 2 x1127 * x1221 - 2 x1127 * x1222 - 2 x1127 * x1223
   - 2 x1127 * x1224 - 2 x1127 * x1227 - 2 x1127 * x1228 - 2 x1127 * x1229
   - 2 x1127 * x1230 - 2 x1127 * x1233 - 2 x1127 * x1234 - 2 x1127 * x1235
   - 2 x1127 * x1236 - 2 x1127 * x1239 - 2 x1127 * x1240 - 2 x1127 * x1241
   - 2 x1127 * x1242 + x1128 ^2 - 2 x1128 * x1221 - 2 x1128 * x1222
   - 2 x1128 * x1223 - 2 x1128 * x1224 - 2 x1128 * x1227 - 2 x1128 * x1228
   - 2 x1128 * x1229 - 2 x1128 * x1230 - 2 x1128 * x1233 - 2 x1128 * x1234
   - 2 x1128 * x1235 - 2 x1128 * x1236 - 2 x1128 * x1239 - 2 x1128 * x1240
   - 2 x1128 * x1241 - 2 x1128 * x1242 + x1221 ^2 + 2 x1221 * x1222
   + 2 x1221 * x1223 + 2 x1221 * x1224 + 2 x1221 * x1227 + 2 x1221 * x1228
   + 2 x1221 * x1229 + 2 x1221 * x1230 + 2 x1221 * x1233 + 2 x1221 * x1234
   + 2 x1221 * x1235 + 2 x1221 * x1236 + 2 x1221 * x1239 + 2 x1221 * x1240
   + 2 x1221 * x1241 + 2 x1221 * x1242 + x1222 ^2 + 2 x1222 * x1223
   + 2 x1222 * x1224 + 2 x1222 * x1227 + 2 x1222 * x1228 + 2 x1222 * x1229
   + 2 x1222 * x1230 + 2 x1222 * x1233 + 2 x1222 * x1234 + 2 x1222 * x1235
   + 2 x1222 * x1236 + 2 x1222 * x1239 + 2 x1222 * x1240 + 2 x1222 * x1241
   + 2 x1222 * x1242 + x1223 ^2 + 2 x1223 * x1224 + 2 x1223 * x1227
   + 2 x1223 * x1228 + 2 x1223 * x1229 + 2 x1223 * x1230 + 2 x1223 * x1233
   + 2 x1223 * x1234 + 2 x1223 * x1235 + 2 x1223 * x1236 + 2 x1223 * x1239
   + 2 x1223 * x1240 + 2 x1223 * x1241 + 2 x1223 * x1242 + x1224 ^2
   + 2 x1224 * x1227 + 2 x1224 * x1228 + 2 x1224 * x1229 + 2 x1224 * x1230
   + 2 x1224 * x1233 + 2 x1224 * x1234 + 2 x1224 * x1235 + 2 x1224 * x1236
   + 2 x1224 * x1239 + 2 x1224 * x1240 + 2 x1224 * x1241 + 2 x1224 * x1242
   + x1227 ^2 + 2 x1227 * x1228 + 2 x1227 * x1229 + 2 x1227 * x1230
   + 2 x1227 * x1233 + 2 x1227 * x1234 + 2 x1227 * x1235 + 2 x1227 * x1236
   + 2 x1227 * x1239 + 2 x1227 * x1240 + 2 x1227 * x1241 + 2 x1227 * x1242
   + x1228 ^2 + 2 x1228 * x1229 + 2 x1228 * x1230 + 2 x1228 * x1233
   + 2 x1228 * x1234 + 2 x1228 * x1235 + 2 x1228 * x1236 + 2 x1228 * x1239
   + 2 x1228 * x1240 + 2 x1228 * x1241 + 2 x1228 * x1242 + x1229 ^2
   + 2 x1229 * x1230 + 2 x1229 * x1233 + 2 x1229 * x1234 + 2 x1229 * x1235
   + 2 x1229 * x1236 + 2 x1229 * x1239 + 2 x1229 * x1240 + 2 x1229 * x1241
   + 2 x1229 * x1242 + x1230 ^2 + 2 x1230 * x1233 + 2 x1230 * x1234
   + 2 x1230 * x1235 + 2 x1230 * x1236 + 2 x1230 * x1239 + 2 x1230 * x1240
   + 2 x1230 * x1241 + 2 x1230 * x1242 + x1233 ^2 + 2 x1233 * x1234
   + 2 x1233 * x1235 + 2 x1233 * x1236 + 2 x1233 * x1239 + 2 x1233 * x1240
   + 2 x1233 * x1241 + 2 x1233 * x1242 + x1234 ^2 + 2 x1234 * x1235
   + 2 x1234 * x1236 + 2 x1234 * x1239 + 2 x1234 * x1240 + 2 x1234 * x1241
   + 2 x1234 * x1242 + x1235 ^2 + 2 x1235 * x1236 + 2 x1235 * x1239
   + 2 x1235 * x1240 + 2 x1235 * x1241 + 2 x1235 * x1242 + x1236 ^2
   + 2 x1236 * x1239 + 2 x1236 * x1240 + 2 x1236 * x1241 + 2 x1236 * x1242
   + x1239 ^2 + 2 x1239 * x1240 + 2 x1239 * x1241 + 2 x1239 * x1242
   + x1240 ^2 + 2 x1240 * x1241 + 2 x1240 * x1242 + x1241 ^2
   + 2 x1241 * x1242 + x1242 ^2 + x1941 ^2 + 2 x1941 * x1942
   + 2 x1941 * x1943 + 2 x1941 * x1944 + 2 x1941 * x1947 + 2 x1941 * x1948
   + 2 x1941 * x1949 + 2 x1941 * x1950 + 2 x1941 * x1953 + 2 x1941 * x1954
   + 2 x1941 * x1955 + 2 x1941 * x1956 + 2 x1941 * x1959 + 2 x1941 * x1960
   + 2 x1941 * x1961 + 2 x1941 * x1962 + x1942 ^2 + 2 x1942 * x1943
   + 2 x1942 * x1944 + 2 x1942 * x1947 + 2 x1942 * x1948 + 2 x1942 * x1949
   + 2 x1942 * x1950 + 2 x1942 * x1953 + 2 x1942 * x1954 + 2 x1942 * x1955
   + 2 x1942 * x1956 + 2 x1942 * x1959 + 2 x1942 * x1960 + 2 x1942 * x1961
   + 2 x1942 * x1962 + x1943 ^2 + 2 x1943 * x1944 + 2 x1943 * x1947
   + 2 x1943 * x1948 + 2 x1943 * x1949 + 2 x1943 * x1950 + 2 x1943 * x1953
   + 2 x1943 * x1954 + 2 x1943 * x1955 + 2 x1943 * x1956 + 2 x1943 * x1959
   + 2 x1943 * x1960 + 2 x1943 * x1961 + 2 x1943 * x1962 + x1944 ^2
   + 2 x1944 * x1947 + 2 x1944 * x1948 + 2 x1944 * x1949 + 2 x1944 * x1950
   + 2 x1944 * x1953 + 2 x1944 * x1954 + 2 x1944 * x1955 + 2 x1944 * x1956
   + 2 x1944 * x1959 + 2 x1944 * x1960 + 2 x1944 * x1961 + 2 x1944 * x1962
   + x1947 ^2 + 2 x1947 * x1948 + 2 x1947 * x1949 + 2 x1947 * x1950
   + 2 x1947 * x1953 + 2 x1947 * x1954 + 2 x1947 * x1955 + 2 x1947 * x1956
   + 2 x1947 * x1959 + 2 x1947 * x1960 + 2 x1947 * x1961 + 2 x1947 * x1962
   + x1948 ^2 + 2 x1948 * x1949 + 2 x1948 * x1950 + 2 x1948 * x1953
   + 2 x1948 * x1954 + 2 x1948 * x1955 + 2 x1948 * x1956 + 2 x1948 * x1959
   + 2 x1948 * x1960 + 2 x1948 * x1961 + 2 x1948 * x1962 + x1949 ^2
   + 2 x1949 * x1950 + 2 x1949 * x1953 + 2 x1949 * x1954 + 2 x1949 * x1955
   + 2 x1949 * x1956 + 2 x1949 * x1959 + 2 x1949 * x1960 + 2 x1949 * x1961
   + 2 x1949 * x1962 + x1950 ^2 + 2 x1950 * x1953 + 2 x1950 * x1954
   + 2 x1950 * x1955 + 2 x1950 * x1956 + 2 x1950 * x1959 + 2 x1950 * x1960
   + 2 x1950 * x1961 + 2 x1950 * x1962 + x1953 ^2 + 2 x1953 * x1954
   + 2 x1953 * x1955 + 2 x1953 * x1956 + 2 x1953 * x1959 + 2 x1953 * x1960
   + 2 x1953 * x1961 + 2 x1953 * x1962 + x1954 ^2 + 2 x1954 * x1955
   + 2 x1954 * x1956 + 2 x1954 * x1959 + 2 x1954 * x1960 + 2 x1954 * x1961
   + 2 x1954 * x1962 + x1955 ^2 + 2 x1955 * x1956 + 2 x1955 * x1959
   + 2 x1955 * x1960 + 2 x1955 * x1961 + 2 x1955 * x1962 + x1956 ^2
   + 2 x1956 * x1959 + 2 x1956 * x1960 + 2 x1956 * x1961 + 2 x1956 * x1962
   + x1959 ^2 + 2 x1959 * x1960 + 2 x1959 * x1961 + 2 x1959 * x1962
   + x1960 ^2 + 2 x1960 * x1961 + 2 x1960 * x1962 + x1961 ^2
   + 2 x1961 * x1962 + x1962 ^2 - x3006 ^2 ] <= 0
 c_u_x3007_: [ 6.33843e-12 x502 ^2 + 6.32922e-12 x502 * x503
   + 5.02282e-12 x502 * x504 + 3.99061e-12 x502 * x505
   + 1.26769e-11 x502 * x518 + 6.32922e-12 x502 * x519
   + 5.02282e-12 x502 * x520 + 3.99061e-12 x502 * x521
   - 5.03525e-06 x502 * x1107 - 5.03525e-06 x502 * x1108
   - 5.03525e-06 x502 * x1109 - 5.03525e-06 x502 * x1110
   - 5.03525e-06 x502 * x1131 - 5.03525e-06 x502 * x1132
   - 5.03525e-06 x502 * x1133 - 5.03525e-06 x502 * x1134
   + 5.03525e-06 x502 * x1245 + 5.03525e-06 x502 * x1246
   + 5.03525e-06 x502 * x1247 + 5.03525e-06 x502 * x1248
   + 5.03525e-06 x502 * x1251 + 5.03525e-06 x502 * x1252
   + 5.03525e-06 x502 * x1253 + 5.03525e-06 x502 * x1254
   + 5.03525e-06 x502 * x1257 + 5.03525e-06 x502 * x1258
   + 5.03525e-06 x502 * x1259 + 5.03525e-06 x502 * x1260
   + 5.03525e-06 x502 * x1263 + 5.03525e-06 x502 * x1264
   + 5.03525e-06 x502 * x1265 + 5.03525e-06 x502 * x1266 + 1.58e-12 x503 ^2
   + 2.50776e-12 x503 * x504 + 1.9924e-12 x503 * x505
   + 6.32922e-12 x503 * x518 + 3.16001e-12 x503 * x519
   + 2.50776e-12 x503 * x520 + 1.9924e-12 x503 * x521
   - 2.51396e-06 x503 * x1107 - 2.51396e-06 x503 * x1108
   - 2.51396e-06 x503 * x1109 - 2.51396e-06 x503 * x1110
   - 2.51396e-06 x503 * x1131 - 2.51396e-06 x503 * x1132
   - 2.51396e-06 x503 * x1133 - 2.51396e-06 x503 * x1134
   + 2.51396e-06 x503 * x1245 + 2.51396e-06 x503 * x1246
   + 2.51396e-06 x503 * x1247 + 2.51396e-06 x503 * x1248
   + 2.51396e-06 x503 * x1251 + 2.51396e-06 x503 * x1252
   + 2.51396e-06 x503 * x1253 + 2.51396e-06 x503 * x1254
   + 2.51396e-06 x503 * x1257 + 2.51396e-06 x503 * x1258
   + 2.51396e-06 x503 * x1259 + 2.51396e-06 x503 * x1260
   + 2.51396e-06 x503 * x1263 + 2.51396e-06 x503 * x1264
   + 2.51396e-06 x503 * x1265 + 2.51396e-06 x503 * x1266
   + 9.9507e-13 x504 ^2 + 1.58116e-12 x504 * x505 + 5.02282e-12 x504 * x518
   + 2.50776e-12 x504 * x519 + 1.99014e-12 x504 * x520
   + 1.58116e-12 x504 * x521 - 1.99506e-06 x504 * x1107
   - 1.99506e-06 x504 * x1108 - 1.99506e-06 x504 * x1109
   - 1.99506e-06 x504 * x1110 - 1.99506e-06 x504 * x1131
   - 1.99506e-06 x504 * x1132 - 1.99506e-06 x504 * x1133
   - 1.99506e-06 x504 * x1134 + 1.99506e-06 x504 * x1245
   + 1.99506e-06 x504 * x1246 + 1.99506e-06 x504 * x1247
   + 1.99506e-06 x504 * x1248 + 1.99506e-06 x504 * x1251
   + 1.99506e-06 x504 * x1252 + 1.99506e-06 x504 * x1253
   + 1.99506e-06 x504 * x1254 + 1.99506e-06 x504 * x1257
   + 1.99506e-06 x504 * x1258 + 1.99506e-06 x504 * x1259
   + 1.99506e-06 x504 * x1260 + 1.99506e-06 x504 * x1263
   + 1.99506e-06 x504 * x1264 + 1.99506e-06 x504 * x1265
   + 1.99506e-06 x504 * x1266 + 6.28111e-13 x505 ^2
   + 3.99061e-12 x505 * x518 + 1.9924e-12 x505 * x519
   + 1.58116e-12 x505 * x520 + 1.25622e-12 x505 * x521
   - 1.58507e-06 x505 * x1107 - 1.58507e-06 x505 * x1108
   - 1.58507e-06 x505 * x1109 - 1.58507e-06 x505 * x1110
   - 1.58507e-06 x505 * x1131 - 1.58507e-06 x505 * x1132
   - 1.58507e-06 x505 * x1133 - 1.58507e-06 x505 * x1134
   + 1.58507e-06 x505 * x1245 + 1.58507e-06 x505 * x1246
   + 1.58507e-06 x505 * x1247 + 1.58507e-06 x505 * x1248
   + 1.58507e-06 x505 * x1251 + 1.58507e-06 x505 * x1252
   + 1.58507e-06 x505 * x1253 + 1.58507e-06 x505 * x1254
   + 1.58507e-06 x505 * x1257 + 1.58507e-06 x505 * x1258
   + 1.58507e-06 x505 * x1259 + 1.58507e-06 x505 * x1260
   + 1.58507e-06 x505 * x1263 + 1.58507e-06 x505 * x1264
   + 1.58507e-06 x505 * x1265 + 1.58507e-06 x505 * x1266
   + 6.33843e-12 x518 ^2 + 6.32922e-12 x518 * x519
   + 5.02282e-12 x518 * x520 + 3.99061e-12 x518 * x521
   - 5.03525e-06 x518 * x1107 - 5.03525e-06 x518 * x1108
   - 5.03525e-06 x518 * x1109 - 5.03525e-06 x518 * x1110
   - 5.03525e-06 x518 * x1131 - 5.03525e-06 x518 * x1132
   - 5.03525e-06 x518 * x1133 - 5.03525e-06 x518 * x1134
   + 5.03525e-06 x518 * x1245 + 5.03525e-06 x518 * x1246
   + 5.03525e-06 x518 * x1247 + 5.03525e-06 x518 * x1248
   + 5.03525e-06 x518 * x1251 + 5.03525e-06 x518 * x1252
   + 5.03525e-06 x518 * x1253 + 5.03525e-06 x518 * x1254
   + 5.03525e-06 x518 * x1257 + 5.03525e-06 x518 * x1258
   + 5.03525e-06 x518 * x1259 + 5.03525e-06 x518 * x1260
   + 5.03525e-06 x518 * x1263 + 5.03525e-06 x518 * x1264
   + 5.03525e-06 x518 * x1265 + 5.03525e-06 x518 * x1266 + 1.58e-12 x519 ^2
   + 2.50776e-12 x519 * x520 + 1.9924e-12 x519 * x521
   - 2.51396e-06 x519 * x1107 - 2.51396e-06 x519 * x1108
   - 2.51396e-06 x519 * x1109 - 2.51396e-06 x519 * x1110
   - 2.51396e-06 x519 * x1131 - 2.51396e-06 x519 * x1132
   - 2.51396e-06 x519 * x1133 - 2.51396e-06 x519 * x1134
   + 2.51396e-06 x519 * x1245 + 2.51396e-06 x519 * x1246
   + 2.51396e-06 x519 * x1247 + 2.51396e-06 x519 * x1248
   + 2.51396e-06 x519 * x1251 + 2.51396e-06 x519 * x1252
   + 2.51396e-06 x519 * x1253 + 2.51396e-06 x519 * x1254
   + 2.51396e-06 x519 * x1257 + 2.51396e-06 x519 * x1258
   + 2.51396e-06 x519 * x1259 + 2.51396e-06 x519 * x1260
   + 2.51396e-06 x519 * x1263 + 2.51396e-06 x519 * x1264
   + 2.51396e-06 x519 * x1265 + 2.51396e-06 x519 * x1266
   + 9.9507e-13 x520 ^2 + 1.58116e-12 x520 * x521
   - 1.99506e-06 x520 * x1107 - 1.99506e-06 x520 * x1108
   - 1.99506e-06 x520 * x1109 - 1.99506e-06 x520 * x1110
   - 1.99506e-06 x520 * x1131 - 1.99506e-06 x520 * x1132
   - 1.99506e-06 x520 * x1133 - 1.99506e-06 x520 * x1134
   + 1.99506e-06 x520 * x1245 + 1.99506e-06 x520 * x1246
   + 1.99506e-06 x520 * x1247 + 1.99506e-06 x520 * x1248
   + 1.99506e-06 x520 * x1251 + 1.99506e-06 x520 * x1252
   + 1.99506e-06 x520 * x1253 + 1.99506e-06 x520 * x1254
   + 1.99506e-06 x520 * x1257 + 1.99506e-06 x520 * x1258
   + 1.99506e-06 x520 * x1259 + 1.99506e-06 x520 * x1260
   + 1.99506e-06 x520 * x1263 + 1.99506e-06 x520 * x1264
   + 1.99506e-06 x520 * x1265 + 1.99506e-06 x520 * x1266
   + 6.28111e-13 x521 ^2 - 1.58507e-06 x521 * x1107
   - 1.58507e-06 x521 * x1108 - 1.58507e-06 x521 * x1109
   - 1.58507e-06 x521 * x1110 - 1.58507e-06 x521 * x1131
   - 1.58507e-06 x521 * x1132 - 1.58507e-06 x521 * x1133
   - 1.58507e-06 x521 * x1134 + 1.58507e-06 x521 * x1245
   + 1.58507e-06 x521 * x1246 + 1.58507e-06 x521 * x1247
   + 1.58507e-06 x521 * x1248 + 1.58507e-06 x521 * x1251
   + 1.58507e-06 x521 * x1252 + 1.58507e-06 x521 * x1253
   + 1.58507e-06 x521 * x1254 + 1.58507e-06 x521 * x1257
   + 1.58507e-06 x521 * x1258 + 1.58507e-06 x521 * x1259
   + 1.58507e-06 x521 * x1260 + 1.58507e-06 x521 * x1263
   + 1.58507e-06 x521 * x1264 + 1.58507e-06 x521 * x1265
   + 1.58507e-06 x521 * x1266 + x1107 ^2 + 2 x1107 * x1108
   + 2 x1107 * x1109 + 2 x1107 * x1110 + 2 x1107 * x1131 + 2 x1107 * x1132
   + 2 x1107 * x1133 + 2 x1107 * x1134 - 2 x1107 * x1245 - 2 x1107 * x1246
   - 2 x1107 * x1247 - 2 x1107 * x1248 - 2 x1107 * x1251 - 2 x1107 * x1252
   - 2 x1107 * x1253 - 2 x1107 * x1254 - 2 x1107 * x1257 - 2 x1107 * x1258
   - 2 x1107 * x1259 - 2 x1107 * x1260 - 2 x1107 * x1263 - 2 x1107 * x1264
   - 2 x1107 * x1265 - 2 x1107 * x1266 + x1108 ^2 + 2 x1108 * x1109
   + 2 x1108 * x1110 + 2 x1108 * x1131 + 2 x1108 * x1132 + 2 x1108 * x1133
   + 2 x1108 * x1134 - 2 x1108 * x1245 - 2 x1108 * x1246 - 2 x1108 * x1247
   - 2 x1108 * x1248 - 2 x1108 * x1251 - 2 x1108 * x1252 - 2 x1108 * x1253
   - 2 x1108 * x1254 - 2 x1108 * x1257 - 2 x1108 * x1258 - 2 x1108 * x1259
   - 2 x1108 * x1260 - 2 x1108 * x1263 - 2 x1108 * x1264 - 2 x1108 * x1265
   - 2 x1108 * x1266 + x1109 ^2 + 2 x1109 * x1110 + 2 x1109 * x1131
   + 2 x1109 * x1132 + 2 x1109 * x1133 + 2 x1109 * x1134 - 2 x1109 * x1245
   - 2 x1109 * x1246 - 2 x1109 * x1247 - 2 x1109 * x1248 - 2 x1109 * x1251
   - 2 x1109 * x1252 - 2 x1109 * x1253 - 2 x1109 * x1254 - 2 x1109 * x1257
   - 2 x1109 * x1258 - 2 x1109 * x1259 - 2 x1109 * x1260 - 2 x1109 * x1263
   - 2 x1109 * x1264 - 2 x1109 * x1265 - 2 x1109 * x1266 + x1110 ^2
   + 2 x1110 * x1131 + 2 x1110 * x1132 + 2 x1110 * x1133 + 2 x1110 * x1134
   - 2 x1110 * x1245 - 2 x1110 * x1246 - 2 x1110 * x1247 - 2 x1110 * x1248
   - 2 x1110 * x1251 - 2 x1110 * x1252 - 2 x1110 * x1253 - 2 x1110 * x1254
   - 2 x1110 * x1257 - 2 x1110 * x1258 - 2 x1110 * x1259 - 2 x1110 * x1260
   - 2 x1110 * x1263 - 2 x1110 * x1264 - 2 x1110 * x1265 - 2 x1110 * x1266
   + x1131 ^2 + 2 x1131 * x1132 + 2 x1131 * x1133 + 2 x1131 * x1134
   - 2 x1131 * x1245 - 2 x1131 * x1246 - 2 x1131 * x1247 - 2 x1131 * x1248
   - 2 x1131 * x1251 - 2 x1131 * x1252 - 2 x1131 * x1253 - 2 x1131 * x1254
   - 2 x1131 * x1257 - 2 x1131 * x1258 - 2 x1131 * x1259 - 2 x1131 * x1260
   - 2 x1131 * x1263 - 2 x1131 * x1264 - 2 x1131 * x1265 - 2 x1131 * x1266
   + x1132 ^2 + 2 x1132 * x1133 + 2 x1132 * x1134 - 2 x1132 * x1245
   - 2 x1132 * x1246 - 2 x1132 * x1247 - 2 x1132 * x1248 - 2 x1132 * x1251
   - 2 x1132 * x1252 - 2 x1132 * x1253 - 2 x1132 * x1254 - 2 x1132 * x1257
   - 2 x1132 * x1258 - 2 x1132 * x1259 - 2 x1132 * x1260 - 2 x1132 * x1263
   - 2 x1132 * x1264 - 2 x1132 * x1265 - 2 x1132 * x1266 + x1133 ^2
   + 2 x1133 * x1134 - 2 x1133 * x1245 - 2 x1133 * x1246 - 2 x1133 * x1247
   - 2 x1133 * x1248 - 2 x1133 * x1251 - 2 x1133 * x1252 - 2 x1133 * x1253
   - 2 x1133 * x1254 - 2 x1133 * x1257 - 2 x1133 * x1258 - 2 x1133 * x1259
   - 2 x1133 * x1260 - 2 x1133 * x1263 - 2 x1133 * x1264 - 2 x1133 * x1265
   - 2 x1133 * x1266 + x1134 ^2 - 2 x1134 * x1245 - 2 x1134 * x1246
   - 2 x1134 * x1247 - 2 x1134 * x1248 - 2 x1134 * x1251 - 2 x1134 * x1252
   - 2 x1134 * x1253 - 2 x1134 * x1254 - 2 x1134 * x1257 - 2 x1134 * x1258
   - 2 x1134 * x1259 - 2 x1134 * x1260 - 2 x1134 * x1263 - 2 x1134 * x1264
   - 2 x1134 * x1265 - 2 x1134 * x1266 + x1245 ^2 + 2 x1245 * x1246
   + 2 x1245 * x1247 + 2 x1245 * x1248 + 2 x1245 * x1251 + 2 x1245 * x1252
   + 2 x1245 * x1253 + 2 x1245 * x1254 + 2 x1245 * x1257 + 2 x1245 * x1258
   + 2 x1245 * x1259 + 2 x1245 * x1260 + 2 x1245 * x1263 + 2 x1245 * x1264
   + 2 x1245 * x1265 + 2 x1245 * x1266 + x1246 ^2 + 2 x1246 * x1247
   + 2 x1246 * x1248 + 2 x1246 * x1251 + 2 x1246 * x1252 + 2 x1246 * x1253
   + 2 x1246 * x1254 + 2 x1246 * x1257 + 2 x1246 * x1258 + 2 x1246 * x1259
   + 2 x1246 * x1260 + 2 x1246 * x1263 + 2 x1246 * x1264 + 2 x1246 * x1265
   + 2 x1246 * x1266 + x1247 ^2 + 2 x1247 * x1248 + 2 x1247 * x1251
   + 2 x1247 * x1252 + 2 x1247 * x1253 + 2 x1247 * x1254 + 2 x1247 * x1257
   + 2 x1247 * x1258 + 2 x1247 * x1259 + 2 x1247 * x1260 + 2 x1247 * x1263
   + 2 x1247 * x1264 + 2 x1247 * x1265 + 2 x1247 * x1266 + x1248 ^2
   + 2 x1248 * x1251 + 2 x1248 * x1252 + 2 x1248 * x1253 + 2 x1248 * x1254
   + 2 x1248 * x1257 + 2 x1248 * x1258 + 2 x1248 * x1259 + 2 x1248 * x1260
   + 2 x1248 * x1263 + 2 x1248 * x1264 + 2 x1248 * x1265 + 2 x1248 * x1266
   + x1251 ^2 + 2 x1251 * x1252 + 2 x1251 * x1253 + 2 x1251 * x1254
   + 2 x1251 * x1257 + 2 x1251 * x1258 + 2 x1251 * x1259 + 2 x1251 * x1260
   + 2 x1251 * x1263 + 2 x1251 * x1264 + 2 x1251 * x1265 + 2 x1251 * x1266
   + x1252 ^2 + 2 x1252 * x1253 + 2 x1252 * x1254 + 2 x1252 * x1257
   + 2 x1252 * x1258 + 2 x1252 * x1259 + 2 x1252 * x1260 + 2 x1252 * x1263
   + 2 x1252 * x1264 + 2 x1252 * x1265 + 2 x1252 * x1266 + x1253 ^2
   + 2 x1253 * x1254 + 2 x1253 * x1257 + 2 x1253 * x1258 + 2 x1253 * x1259
   + 2 x1253 * x1260 + 2 x1253 * x1263 + 2 x1253 * x1264 + 2 x1253 * x1265
   + 2 x1253 * x1266 + x1254 ^2 + 2 x1254 * x1257 + 2 x1254 * x1258
   + 2 x1254 * x1259 + 2 x1254 * x1260 + 2 x1254 * x1263 + 2 x1254 * x1264
   + 2 x1254 * x1265 + 2 x1254 * x1266 + x1257 ^2 + 2 x1257 * x1258
   + 2 x1257 * x1259 + 2 x1257 * x1260 + 2 x1257 * x1263 + 2 x1257 * x1264
   + 2 x1257 * x1265 + 2 x1257 * x1266 + x1258 ^2 + 2 x1258 * x1259
   + 2 x1258 * x1260 + 2 x1258 * x1263 + 2 x1258 * x1264 + 2 x1258 * x1265
   + 2 x1258 * x1266 + x1259 ^2 + 2 x1259 * x1260 + 2 x1259 * x1263
   + 2 x1259 * x1264 + 2 x1259 * x1265 + 2 x1259 * x1266 + x1260 ^2
   + 2 x1260 * x1263 + 2 x1260 * x1264 + 2 x1260 * x1265 + 2 x1260 * x1266
   + x1263 ^2 + 2 x1263 * x1264 + 2 x1263 * x1265 + 2 x1263 * x1266
   + x1264 ^2 + 2 x1264 * x1265 + 2 x1264 * x1266 + x1265 ^2
   + 2 x1265 * x1266 + x1266 ^2 + x1965 ^2 + 2 x1965 * x1966
   + 2 x1965 * x1967 + 2 x1965 * x1968 + 2 x1965 * x1971 + 2 x1965 * x1972
   + 2 x1965 * x1973 + 2 x1965 * x1974 + 2 x1965 * x1977 + 2 x1965 * x1978
   + 2 x1965 * x1979 + 2 x1965 * x1980 + 2 x1965 * x1983 + 2 x1965 * x1984
   + 2 x1965 * x1985 + 2 x1965 * x1986 + x1966 ^2 + 2 x1966 * x1967
   + 2 x1966 * x1968 + 2 x1966 * x1971 + 2 x1966 * x1972 + 2 x1966 * x1973
   + 2 x1966 * x1974 + 2 x1966 * x1977 + 2 x1966 * x1978 + 2 x1966 * x1979
   + 2 x1966 * x1980 + 2 x1966 * x1983 + 2 x1966 * x1984 + 2 x1966 * x1985
   + 2 x1966 * x1986 + x1967 ^2 + 2 x1967 * x1968 + 2 x1967 * x1971
   + 2 x1967 * x1972 + 2 x1967 * x1973 + 2 x1967 * x1974 + 2 x1967 * x1977
   + 2 x1967 * x1978 + 2 x1967 * x1979 + 2 x1967 * x1980 + 2 x1967 * x1983
   + 2 x1967 * x1984 + 2 x1967 * x1985 + 2 x1967 * x1986 + x1968 ^2
   + 2 x1968 * x1971 + 2 x1968 * x1972 + 2 x1968 * x1973 + 2 x1968 * x1974
   + 2 x1968 * x1977 + 2 x1968 * x1978 + 2 x1968 * x1979 + 2 x1968 * x1980
   + 2 x1968 * x1983 + 2 x1968 * x1984 + 2 x1968 * x1985 + 2 x1968 * x1986
   + x1971 ^2 + 2 x1971 * x1972 + 2 x1971 * x1973 + 2 x1971 * x1974
   + 2 x1971 * x1977 + 2 x1971 * x1978 + 2 x1971 * x1979 + 2 x1971 * x1980
   + 2 x1971 * x1983 + 2 x1971 * x1984 + 2 x1971 * x1985 + 2 x1971 * x1986
   + x1972 ^2 + 2 x1972 * x1973 + 2 x1972 * x1974 + 2 x1972 * x1977
   + 2 x1972 * x1978 + 2 x1972 * x1979 + 2 x1972 * x1980 + 2 x1972 * x1983
   + 2 x1972 * x1984 + 2 x1972 * x1985 + 2 x1972 * x1986 + x1973 ^2
   + 2 x1973 * x1974 + 2 x1973 * x1977 + 2 x1973 * x1978 + 2 x1973 * x1979
   + 2 x1973 * x1980 + 2 x1973 * x1983 + 2 x1973 * x1984 + 2 x1973 * x1985
   + 2 x1973 * x1986 + x1974 ^2 + 2 x1974 * x1977 + 2 x1974 * x1978
   + 2 x1974 * x1979 + 2 x1974 * x1980 + 2 x1974 * x1983 + 2 x1974 * x1984
   + 2 x1974 * x1985 + 2 x1974 * x1986 + x1977 ^2 + 2 x1977 * x1978
   + 2 x1977 * x1979 + 2 x1977 * x1980 + 2 x1977 * x1983 + 2 x1977 * x1984
   + 2 x1977 * x1985 + 2 x1977 * x1986 + x1978 ^2 + 2 x1978 * x1979
   + 2 x1978 * x1980 + 2 x1978 * x1983 + 2 x1978 * x1984 + 2 x1978 * x1985
   + 2 x1978 * x1986 + x1979 ^2 + 2 x1979 * x1980 + 2 x1979 * x1983
   + 2 x1979 * x1984 + 2 x1979 * x1985 + 2 x1979 * x1986 + x1980 ^2
   + 2 x1980 * x1983 + 2 x1980 * x1984 + 2 x1980 * x1985 + 2 x1980 * x1986
   + x1983 ^2 + 2 x1983 * x1984 + 2 x1983 * x1985 + 2 x1983 * x1986
   + x1984 ^2 + 2 x1984 * x1985 + 2 x1984 * x1986 + x1985 ^2
   + 2 x1985 * x1986 + x1986 ^2 - x3008 ^2 ] <= 0
 c_u_x3009_: [ 8.6705e-12 x506 ^2 + 8.65789e-12 x506 * x507
   + 6.87084e-12 x506 * x508 + 5.45885e-12 x506 * x509
   + 1.3277e-11 x506 * x522 + 6.62884e-12 x506 * x523
   + 5.2606e-12 x506 * x524 + 4.17952e-12 x506 * x525
   - 5.88914e-06 x506 * x1113 - 5.88914e-06 x506 * x1114
   - 5.88914e-06 x506 * x1115 - 5.88914e-06 x506 * x1116
   - 5.88914e-06 x506 * x1137 - 5.88914e-06 x506 * x1138
   - 5.88914e-06 x506 * x1139 - 5.88914e-06 x506 * x1140
   + 5.88914e-06 x506 * x1269 + 5.88914e-06 x506 * x1270
   + 5.88914e-06 x506 * x1271 + 5.88914e-06 x506 * x1272
   + 5.88914e-06 x506 * x1275 + 5.88914e-06 x506 * x1276
   + 5.88914e-06 x506 * x1277 + 5.88914e-06 x506 * x1278
   + 5.88914e-06 x506 * x1281 + 5.88914e-06 x506 * x1282
   + 5.88914e-06 x506 * x1283 + 5.88914e-06 x506 * x1284
   + 5.88914e-06 x506 * x1287 + 5.88914e-06 x506 * x1288
   + 5.88914e-06 x506 * x1289 + 5.88914e-06 x506 * x1290
   + 5.88914e-06 x506 * x1293 + 5.88914e-06 x506 * x1294
   + 5.88914e-06 x506 * x1295 + 5.88914e-06 x506 * x1296
   + 2.16133e-12 x507 ^2 + 3.43043e-12 x507 * x508
   + 2.72546e-12 x507 * x509 + 6.62884e-12 x507 * x522
   + 3.3096e-12 x507 * x523 + 2.62648e-12 x507 * x524
   + 2.08672e-12 x507 * x525 - 2.94029e-06 x507 * x1113
   - 2.94029e-06 x507 * x1114 - 2.94029e-06 x507 * x1115
   - 2.94029e-06 x507 * x1116 - 2.94029e-06 x507 * x1137
   - 2.94029e-06 x507 * x1138 - 2.94029e-06 x507 * x1139
   - 2.94029e-06 x507 * x1140 + 2.94029e-06 x507 * x1269
   + 2.94029e-06 x507 * x1270 + 2.94029e-06 x507 * x1271
   + 2.94029e-06 x507 * x1272 + 2.94029e-06 x507 * x1275
   + 2.94029e-06 x507 * x1276 + 2.94029e-06 x507 * x1277
   + 2.94029e-06 x507 * x1278 + 2.94029e-06 x507 * x1281
   + 2.94029e-06 x507 * x1282 + 2.94029e-06 x507 * x1283
   + 2.94029e-06 x507 * x1284 + 2.94029e-06 x507 * x1287
   + 2.94029e-06 x507 * x1288 + 2.94029e-06 x507 * x1289
   + 2.94029e-06 x507 * x1290 + 2.94029e-06 x507 * x1293
   + 2.94029e-06 x507 * x1294 + 2.94029e-06 x507 * x1295
   + 2.94029e-06 x507 * x1296 + 1.36118e-12 x508 ^2
   + 2.1629e-12 x508 * x509 + 5.2606e-12 x508 * x522
   + 2.62648e-12 x508 * x523 + 2.08435e-12 x508 * x524
   + 1.65601e-12 x508 * x525 - 2.33339e-06 x508 * x1113
   - 2.33339e-06 x508 * x1114 - 2.33339e-06 x508 * x1115
   - 2.33339e-06 x508 * x1116 - 2.33339e-06 x508 * x1137
   - 2.33339e-06 x508 * x1138 - 2.33339e-06 x508 * x1139
   - 2.33339e-06 x508 * x1140 + 2.33339e-06 x508 * x1269
   + 2.33339e-06 x508 * x1270 + 2.33339e-06 x508 * x1271
   + 2.33339e-06 x508 * x1272 + 2.33339e-06 x508 * x1275
   + 2.33339e-06 x508 * x1276 + 2.33339e-06 x508 * x1277
   + 2.33339e-06 x508 * x1278 + 2.33339e-06 x508 * x1281
   + 2.33339e-06 x508 * x1282 + 2.33339e-06 x508 * x1283
   + 2.33339e-06 x508 * x1284 + 2.33339e-06 x508 * x1287
   + 2.33339e-06 x508 * x1288 + 2.33339e-06 x508 * x1289
   + 2.33339e-06 x508 * x1290 + 2.33339e-06 x508 * x1293
   + 2.33339e-06 x508 * x1294 + 2.33339e-06 x508 * x1295
   + 2.33339e-06 x508 * x1296 + 8.59209e-13 x509 ^2
   + 4.17952e-12 x509 * x522 + 2.08672e-12 x509 * x523
   + 1.65601e-12 x509 * x524 + 1.31569e-12 x509 * x525
   - 1.85387e-06 x509 * x1113 - 1.85387e-06 x509 * x1114
   - 1.85387e-06 x509 * x1115 - 1.85387e-06 x509 * x1116
   - 1.85387e-06 x509 * x1137 - 1.85387e-06 x509 * x1138
   - 1.85387e-06 x509 * x1139 - 1.85387e-06 x509 * x1140
   + 1.85387e-06 x509 * x1269 + 1.85387e-06 x509 * x1270
   + 1.85387e-06 x509 * x1271 + 1.85387e-06 x509 * x1272
   + 1.85387e-06 x509 * x1275 + 1.85387e-06 x509 * x1276
   + 1.85387e-06 x509 * x1277 + 1.85387e-06 x509 * x1278
   + 1.85387e-06 x509 * x1281 + 1.85387e-06 x509 * x1282
   + 1.85387e-06 x509 * x1283 + 1.85387e-06 x509 * x1284
   + 1.85387e-06 x509 * x1287 + 1.85387e-06 x509 * x1288
   + 1.85387e-06 x509 * x1289 + 1.85387e-06 x509 * x1290
   + 1.85387e-06 x509 * x1293 + 1.85387e-06 x509 * x1294
   + 1.85387e-06 x509 * x1295 + 1.85387e-06 x509 * x1296
   + 5.08271e-12 x522 ^2 + 5.07532e-12 x522 * x523
   + 4.02774e-12 x522 * x524 + 3.20002e-12 x522 * x525
   - 4.50897e-06 x522 * x1113 - 4.50897e-06 x522 * x1114
   - 4.50897e-06 x522 * x1115 - 4.50897e-06 x522 * x1116
   - 4.50897e-06 x522 * x1137 - 4.50897e-06 x522 * x1138
   - 4.50897e-06 x522 * x1139 - 4.50897e-06 x522 * x1140
   + 4.50897e-06 x522 * x1269 + 4.50897e-06 x522 * x1270
   + 4.50897e-06 x522 * x1271 + 4.50897e-06 x522 * x1272
   + 4.50897e-06 x522 * x1275 + 4.50897e-06 x522 * x1276
   + 4.50897e-06 x522 * x1277 + 4.50897e-06 x522 * x1278
   + 4.50897e-06 x522 * x1281 + 4.50897e-06 x522 * x1282
   + 4.50897e-06 x522 * x1283 + 4.50897e-06 x522 * x1284
   + 4.50897e-06 x522 * x1287 + 4.50897e-06 x522 * x1288
   + 4.50897e-06 x522 * x1289 + 4.50897e-06 x522 * x1290
   + 4.50897e-06 x522 * x1293 + 4.50897e-06 x522 * x1294
   + 4.50897e-06 x522 * x1295 + 4.50897e-06 x522 * x1296
   + 1.26698e-12 x523 ^2 + 2.01094e-12 x523 * x524
   + 1.59768e-12 x523 * x525 - 2.25121e-06 x523 * x1113
   - 2.25121e-06 x523 * x1114 - 2.25121e-06 x523 * x1115
   - 2.25121e-06 x523 * x1116 - 2.25121e-06 x523 * x1137
   - 2.25121e-06 x523 * x1138 - 2.25121e-06 x523 * x1139
   - 2.25121e-06 x523 * x1140 + 2.25121e-06 x523 * x1269
   + 2.25121e-06 x523 * x1270 + 2.25121e-06 x523 * x1271
   + 2.25121e-06 x523 * x1272 + 2.25121e-06 x523 * x1275
   + 2.25121e-06 x523 * x1276 + 2.25121e-06 x523 * x1277
   + 2.25121e-06 x523 * x1278 + 2.25121e-06 x523 * x1281
   + 2.25121e-06 x523 * x1282 + 2.25121e-06 x523 * x1283
   + 2.25121e-06 x523 * x1284 + 2.25121e-06 x523 * x1287
   + 2.25121e-06 x523 * x1288 + 2.25121e-06 x523 * x1289
   + 2.25121e-06 x523 * x1290 + 2.25121e-06 x523 * x1293
   + 2.25121e-06 x523 * x1294 + 2.25121e-06 x523 * x1295
   + 2.25121e-06 x523 * x1296 + 7.97934e-13 x524 ^2
   + 1.26791e-12 x524 * x525 - 1.78654e-06 x524 * x1113
   - 1.78654e-06 x524 * x1114 - 1.78654e-06 x524 * x1115
   - 1.78654e-06 x524 * x1116 - 1.78654e-06 x524 * x1137
   - 1.78654e-06 x524 * x1138 - 1.78654e-06 x524 * x1139
   - 1.78654e-06 x524 * x1140 + 1.78654e-06 x524 * x1269
   + 1.78654e-06 x524 * x1270 + 1.78654e-06 x524 * x1271
   + 1.78654e-06 x524 * x1272 + 1.78654e-06 x524 * x1275
   + 1.78654e-06 x524 * x1276 + 1.78654e-06 x524 * x1277
   + 1.78654e-06 x524 * x1278 + 1.78654e-06 x524 * x1281
   + 1.78654e-06 x524 * x1282 + 1.78654e-06 x524 * x1283
   + 1.78654e-06 x524 * x1284 + 1.78654e-06 x524 * x1287
   + 1.78654e-06 x524 * x1288 + 1.78654e-06 x524 * x1289
   + 1.78654e-06 x524 * x1290 + 1.78654e-06 x524 * x1293
   + 1.78654e-06 x524 * x1294 + 1.78654e-06 x524 * x1295
   + 1.78654e-06 x524 * x1296 + 5.03674e-13 x525 ^2
   - 1.4194e-06 x525 * x1113 - 1.4194e-06 x525 * x1114
   - 1.4194e-06 x525 * x1115 - 1.4194e-06 x525 * x1116
   - 1.4194e-06 x525 * x1137 - 1.4194e-06 x525 * x1138
   - 1.4194e-06 x525 * x1139 - 1.4194e-06 x525 * x1140
   + 1.4194e-06 x525 * x1269 + 1.4194e-06 x525 * x1270
   + 1.4194e-06 x525 * x1271 + 1.4194e-06 x525 * x1272
   + 1.4194e-06 x525 * x1275 + 1.4194e-06 x525 * x1276
   + 1.4194e-06 x525 * x1277 + 1.4194e-06 x525 * x1278
   + 1.4194e-06 x525 * x1281 + 1.4194e-06 x525 * x1282
   + 1.4194e-06 x525 * x1283 + 1.4194e-06 x525 * x1284
   + 1.4194e-06 x525 * x1287 + 1.4194e-06 x525 * x1288
   + 1.4194e-06 x525 * x1289 + 1.4194e-06 x525 * x1290
   + 1.4194e-06 x525 * x1293 + 1.4194e-06 x525 * x1294
   + 1.4194e-06 x525 * x1295 + 1.4194e-06 x525 * x1296 + x1113 ^2
   + 2 x1113 * x1114 + 2 x1113 * x1115 + 2 x1113 * x1116 + 2 x1113 * x1137
   + 2 x1113 * x1138 + 2 x1113 * x1139 + 2 x1113 * x1140 - 2 x1113 * x1269
   - 2 x1113 * x1270 - 2 x1113 * x1271 - 2 x1113 * x1272 - 2 x1113 * x1275
   - 2 x1113 * x1276 - 2 x1113 * x1277 - 2 x1113 * x1278 - 2 x1113 * x1281
   - 2 x1113 * x1282 - 2 x1113 * x1283 - 2 x1113 * x1284 - 2 x1113 * x1287
   - 2 x1113 * x1288 - 2 x1113 * x1289 - 2 x1113 * x1290 - 2 x1113 * x1293
   - 2 x1113 * x1294 - 2 x1113 * x1295 - 2 x1113 * x1296 + x1114 ^2
   + 2 x1114 * x1115 + 2 x1114 * x1116 + 2 x1114 * x1137 + 2 x1114 * x1138
   + 2 x1114 * x1139 + 2 x1114 * x1140 - 2 x1114 * x1269 - 2 x1114 * x1270
   - 2 x1114 * x1271 - 2 x1114 * x1272 - 2 x1114 * x1275 - 2 x1114 * x1276
   - 2 x1114 * x1277 - 2 x1114 * x1278 - 2 x1114 * x1281 - 2 x1114 * x1282
   - 2 x1114 * x1283 - 2 x1114 * x1284 - 2 x1114 * x1287 - 2 x1114 * x1288
   - 2 x1114 * x1289 - 2 x1114 * x1290 - 2 x1114 * x1293 - 2 x1114 * x1294
   - 2 x1114 * x1295 - 2 x1114 * x1296 + x1115 ^2 + 2 x1115 * x1116
   + 2 x1115 * x1137 + 2 x1115 * x1138 + 2 x1115 * x1139 + 2 x1115 * x1140
   - 2 x1115 * x1269 - 2 x1115 * x1270 - 2 x1115 * x1271 - 2 x1115 * x1272
   - 2 x1115 * x1275 - 2 x1115 * x1276 - 2 x1115 * x1277 - 2 x1115 * x1278
   - 2 x1115 * x1281 - 2 x1115 * x1282 - 2 x1115 * x1283 - 2 x1115 * x1284
   - 2 x1115 * x1287 - 2 x1115 * x1288 - 2 x1115 * x1289 - 2 x1115 * x1290
   - 2 x1115 * x1293 - 2 x1115 * x1294 - 2 x1115 * x1295 - 2 x1115 * x1296
   + x1116 ^2 + 2 x1116 * x1137 + 2 x1116 * x1138 + 2 x1116 * x1139
   + 2 x1116 * x1140 - 2 x1116 * x1269 - 2 x1116 * x1270 - 2 x1116 * x1271
   - 2 x1116 * x1272 - 2 x1116 * x1275 - 2 x1116 * x1276 - 2 x1116 * x1277
   - 2 x1116 * x1278 - 2 x1116 * x1281 - 2 x1116 * x1282 - 2 x1116 * x1283
   - 2 x1116 * x1284 - 2 x1116 * x1287 - 2 x1116 * x1288 - 2 x1116 * x1289
   - 2 x1116 * x1290 - 2 x1116 * x1293 - 2 x1116 * x1294 - 2 x1116 * x1295
   - 2 x1116 * x1296 + x1137 ^2 + 2 x1137 * x1138 + 2 x1137 * x1139
   + 2 x1137 * x1140 - 2 x1137 * x1269 - 2 x1137 * x1270 - 2 x1137 * x1271
   - 2 x1137 * x1272 - 2 x1137 * x1275 - 2 x1137 * x1276 - 2 x1137 * x1277
   - 2 x1137 * x1278 - 2 x1137 * x1281 - 2 x1137 * x1282 - 2 x1137 * x1283
   - 2 x1137 * x1284 - 2 x1137 * x1287 - 2 x1137 * x1288 - 2 x1137 * x1289
   - 2 x1137 * x1290 - 2 x1137 * x1293 - 2 x1137 * x1294 - 2 x1137 * x1295
   - 2 x1137 * x1296 + x1138 ^2 + 2 x1138 * x1139 + 2 x1138 * x1140
   - 2 x1138 * x1269 - 2 x1138 * x1270 - 2 x1138 * x1271 - 2 x1138 * x1272
   - 2 x1138 * x1275 - 2 x1138 * x1276 - 2 x1138 * x1277 - 2 x1138 * x1278
   - 2 x1138 * x1281 - 2 x1138 * x1282 - 2 x1138 * x1283 - 2 x1138 * x1284
   - 2 x1138 * x1287 - 2 x1138 * x1288 - 2 x1138 * x1289 - 2 x1138 * x1290
   - 2 x1138 * x1293 - 2 x1138 * x1294 - 2 x1138 * x1295 - 2 x1138 * x1296
   + x1139 ^2 + 2 x1139 * x1140 - 2 x1139 * x1269 - 2 x1139 * x1270
   - 2 x1139 * x1271 - 2 x1139 * x1272 - 2 x1139 * x1275 - 2 x1139 * x1276
   - 2 x1139 * x1277 - 2 x1139 * x1278 - 2 x1139 * x1281 - 2 x1139 * x1282
   - 2 x1139 * x1283 - 2 x1139 * x1284 - 2 x1139 * x1287 - 2 x1139 * x1288
   - 2 x1139 * x1289 - 2 x1139 * x1290 - 2 x1139 * x1293 - 2 x1139 * x1294
   - 2 x1139 * x1295 - 2 x1139 * x1296 + x1140 ^2 - 2 x1140 * x1269
   - 2 x1140 * x1270 - 2 x1140 * x1271 - 2 x1140 * x1272 - 2 x1140 * x1275
   - 2 x1140 * x1276 - 2 x1140 * x1277 - 2 x1140 * x1278 - 2 x1140 * x1281
   - 2 x1140 * x1282 - 2 x1140 * x1283 - 2 x1140 * x1284 - 2 x1140 * x1287
   - 2 x1140 * x1288 - 2 x1140 * x1289 - 2 x1140 * x1290 - 2 x1140 * x1293
   - 2 x1140 * x1294 - 2 x1140 * x1295 - 2 x1140 * x1296 + x1269 ^2
   + 2 x1269 * x1270 + 2 x1269 * x1271 + 2 x1269 * x1272 + 2 x1269 * x1275
   + 2 x1269 * x1276 + 2 x1269 * x1277 + 2 x1269 * x1278 + 2 x1269 * x1281
   + 2 x1269 * x1282 + 2 x1269 * x1283 + 2 x1269 * x1284 + 2 x1269 * x1287
   + 2 x1269 * x1288 + 2 x1269 * x1289 + 2 x1269 * x1290 + 2 x1269 * x1293
   + 2 x1269 * x1294 + 2 x1269 * x1295 + 2 x1269 * x1296 + x1270 ^2
   + 2 x1270 * x1271 + 2 x1270 * x1272 + 2 x1270 * x1275 + 2 x1270 * x1276
   + 2 x1270 * x1277 + 2 x1270 * x1278 + 2 x1270 * x1281 + 2 x1270 * x1282
   + 2 x1270 * x1283 + 2 x1270 * x1284 + 2 x1270 * x1287 + 2 x1270 * x1288
   + 2 x1270 * x1289 + 2 x1270 * x1290 + 2 x1270 * x1293 + 2 x1270 * x1294
   + 2 x1270 * x1295 + 2 x1270 * x1296 + x1271 ^2 + 2 x1271 * x1272
   + 2 x1271 * x1275 + 2 x1271 * x1276 + 2 x1271 * x1277 + 2 x1271 * x1278
   + 2 x1271 * x1281 + 2 x1271 * x1282 + 2 x1271 * x1283 + 2 x1271 * x1284
   + 2 x1271 * x1287 + 2 x1271 * x1288 + 2 x1271 * x1289 + 2 x1271 * x1290
   + 2 x1271 * x1293 + 2 x1271 * x1294 + 2 x1271 * x1295 + 2 x1271 * x1296
   + x1272 ^2 + 2 x1272 * x1275 + 2 x1272 * x1276 + 2 x1272 * x1277
   + 2 x1272 * x1278 + 2 x1272 * x1281 + 2 x1272 * x1282 + 2 x1272 * x1283
   + 2 x1272 * x1284 + 2 x1272 * x1287 + 2 x1272 * x1288 + 2 x1272 * x1289
   + 2 x1272 * x1290 + 2 x1272 * x1293 + 2 x1272 * x1294 + 2 x1272 * x1295
   + 2 x1272 * x1296 + x1275 ^2 + 2 x1275 * x1276 + 2 x1275 * x1277
   + 2 x1275 * x1278 + 2 x1275 * x1281 + 2 x1275 * x1282 + 2 x1275 * x1283
   + 2 x1275 * x1284 + 2 x1275 * x1287 + 2 x1275 * x1288 + 2 x1275 * x1289
   + 2 x1275 * x1290 + 2 x1275 * x1293 + 2 x1275 * x1294 + 2 x1275 * x1295
   + 2 x1275 * x1296 + x1276 ^2 + 2 x1276 * x1277 + 2 x1276 * x1278
   + 2 x1276 * x1281 + 2 x1276 * x1282 + 2 x1276 * x1283 + 2 x1276 * x1284
   + 2 x1276 * x1287 + 2 x1276 * x1288 + 2 x1276 * x1289 + 2 x1276 * x1290
   + 2 x1276 * x1293 + 2 x1276 * x1294 + 2 x1276 * x1295 + 2 x1276 * x1296
   + x1277 ^2 + 2 x1277 * x1278 + 2 x1277 * x1281 + 2 x1277 * x1282
   + 2 x1277 * x1283 + 2 x1277 * x1284 + 2 x1277 * x1287 + 2 x1277 * x1288
   + 2 x1277 * x1289 + 2 x1277 * x1290 + 2 x1277 * x1293 + 2 x1277 * x1294
   + 2 x1277 * x1295 + 2 x1277 * x1296 + x1278 ^2 + 2 x1278 * x1281
   + 2 x1278 * x1282 + 2 x1278 * x1283 + 2 x1278 * x1284 + 2 x1278 * x1287
   + 2 x1278 * x1288 + 2 x1278 * x1289 + 2 x1278 * x1290 + 2 x1278 * x1293
   + 2 x1278 * x1294 + 2 x1278 * x1295 + 2 x1278 * x1296 + x1281 ^2
   + 2 x1281 * x1282 + 2 x1281 * x1283 + 2 x1281 * x1284 + 2 x1281 * x1287
   + 2 x1281 * x1288 + 2 x1281 * x1289 + 2 x1281 * x1290 + 2 x1281 * x1293
   + 2 x1281 * x1294 + 2 x1281 * x1295 + 2 x1281 * x1296 + x1282 ^2
   + 2 x1282 * x1283 + 2 x1282 * x1284 + 2 x1282 * x1287 + 2 x1282 * x1288
   + 2 x1282 * x1289 + 2 x1282 * x1290 + 2 x1282 * x1293 + 2 x1282 * x1294
   + 2 x1282 * x1295 + 2 x1282 * x1296 + x1283 ^2 + 2 x1283 * x1284
   + 2 x1283 * x1287 + 2 x1283 * x1288 + 2 x1283 * x1289 + 2 x1283 * x1290
   + 2 x1283 * x1293 + 2 x1283 * x1294 + 2 x1283 * x1295 + 2 x1283 * x1296
   + x1284 ^2 + 2 x1284 * x1287 + 2 x1284 * x1288 + 2 x1284 * x1289
   + 2 x1284 * x1290 + 2 x1284 * x1293 + 2 x1284 * x1294 + 2 x1284 * x1295
   + 2 x1284 * x1296 + x1287 ^2 + 2 x1287 * x1288 + 2 x1287 * x1289
   + 2 x1287 * x1290 + 2 x1287 * x1293 + 2 x1287 * x1294 + 2 x1287 * x1295
   + 2 x1287 * x1296 + x1288 ^2 + 2 x1288 * x1289 + 2 x1288 * x1290
   + 2 x1288 * x1293 + 2 x1288 * x1294 + 2 x1288 * x1295 + 2 x1288 * x1296
   + x1289 ^2 + 2 x1289 * x1290 + 2 x1289 * x1293 + 2 x1289 * x1294
   + 2 x1289 * x1295 + 2 x1289 * x1296 + x1290 ^2 + 2 x1290 * x1293
   + 2 x1290 * x1294 + 2 x1290 * x1295 + 2 x1290 * x1296 + x1293 ^2
   + 2 x1293 * x1294 + 2 x1293 * x1295 + 2 x1293 * x1296 + x1294 ^2
   + 2 x1294 * x1295 + 2 x1294 * x1296 + x1295 ^2 + 2 x1295 * x1296
   + x1296 ^2 + x1989 ^2 + 2 x1989 * x1990 + 2 x1989 * x1991
   + 2 x1989 * x1992 + 2 x1989 * x1995 + 2 x1989 * x1996 + 2 x1989 * x1997
   + 2 x1989 * x1998 + 2 x1989 * x2001 + 2 x1989 * x2002 + 2 x1989 * x2003
   + 2 x1989 * x2004 + 2 x1989 * x2007 + 2 x1989 * x2008 + 2 x1989 * x2009
   + 2 x1989 * x2010 + 2 x1989 * x2013 + 2 x1989 * x2014 + 2 x1989 * x2015
   + 2 x1989 * x2016 + x1990 ^2 + 2 x1990 * x1991 + 2 x1990 * x1992
   + 2 x1990 * x1995 + 2 x1990 * x1996 + 2 x1990 * x1997 + 2 x1990 * x1998
   + 2 x1990 * x2001 + 2 x1990 * x2002 + 2 x1990 * x2003 + 2 x1990 * x2004
   + 2 x1990 * x2007 + 2 x1990 * x2008 + 2 x1990 * x2009 + 2 x1990 * x2010
   + 2 x1990 * x2013 + 2 x1990 * x2014 + 2 x1990 * x2015 + 2 x1990 * x2016
   + x1991 ^2 + 2 x1991 * x1992 + 2 x1991 * x1995 + 2 x1991 * x1996
   + 2 x1991 * x1997 + 2 x1991 * x1998 + 2 x1991 * x2001 + 2 x1991 * x2002
   + 2 x1991 * x2003 + 2 x1991 * x2004 + 2 x1991 * x2007 + 2 x1991 * x2008
   + 2 x1991 * x2009 + 2 x1991 * x2010 + 2 x1991 * x2013 + 2 x1991 * x2014
   + 2 x1991 * x2015 + 2 x1991 * x2016 + x1992 ^2 + 2 x1992 * x1995
   + 2 x1992 * x1996 + 2 x1992 * x1997 + 2 x1992 * x1998 + 2 x1992 * x2001
   + 2 x1992 * x2002 + 2 x1992 * x2003 + 2 x1992 * x2004 + 2 x1992 * x2007
   + 2 x1992 * x2008 + 2 x1992 * x2009 + 2 x1992 * x2010 + 2 x1992 * x2013
   + 2 x1992 * x2014 + 2 x1992 * x2015 + 2 x1992 * x2016 + x1995 ^2
   + 2 x1995 * x1996 + 2 x1995 * x1997 + 2 x1995 * x1998 + 2 x1995 * x2001
   + 2 x1995 * x2002 + 2 x1995 * x2003 + 2 x1995 * x2004 + 2 x1995 * x2007
   + 2 x1995 * x2008 + 2 x1995 * x2009 + 2 x1995 * x2010 + 2 x1995 * x2013
   + 2 x1995 * x2014 + 2 x1995 * x2015 + 2 x1995 * x2016 + x1996 ^2
   + 2 x1996 * x1997 + 2 x1996 * x1998 + 2 x1996 * x2001 + 2 x1996 * x2002
   + 2 x1996 * x2003 + 2 x1996 * x2004 + 2 x1996 * x2007 + 2 x1996 * x2008
   + 2 x1996 * x2009 + 2 x1996 * x2010 + 2 x1996 * x2013 + 2 x1996 * x2014
   + 2 x1996 * x2015 + 2 x1996 * x2016 + x1997 ^2 + 2 x1997 * x1998
   + 2 x1997 * x2001 + 2 x1997 * x2002 + 2 x1997 * x2003 + 2 x1997 * x2004
   + 2 x1997 * x2007 + 2 x1997 * x2008 + 2 x1997 * x2009 + 2 x1997 * x2010
   + 2 x1997 * x2013 + 2 x1997 * x2014 + 2 x1997 * x2015 + 2 x1997 * x2016
   + x1998 ^2 + 2 x1998 * x2001 + 2 x1998 * x2002 + 2 x1998 * x2003
   + 2 x1998 * x2004 + 2 x1998 * x2007 + 2 x1998 * x2008 + 2 x1998 * x2009
   + 2 x1998 * x2010 + 2 x1998 * x2013 + 2 x1998 * x2014 + 2 x1998 * x2015
   + 2 x1998 * x2016 + x2001 ^2 + 2 x2001 * x2002 + 2 x2001 * x2003
   + 2 x2001 * x2004 + 2 x2001 * x2007 + 2 x2001 * x2008 + 2 x2001 * x2009
   + 2 x2001 * x2010 + 2 x2001 * x2013 + 2 x2001 * x2014 + 2 x2001 * x2015
   + 2 x2001 * x2016 + x2002 ^2 + 2 x2002 * x2003 + 2 x2002 * x2004
   + 2 x2002 * x2007 + 2 x2002 * x2008 + 2 x2002 * x2009 + 2 x2002 * x2010
   + 2 x2002 * x2013 + 2 x2002 * x2014 + 2 x2002 * x2015 + 2 x2002 * x2016
   + x2003 ^2 + 2 x2003 * x2004 + 2 x2003 * x2007 + 2 x2003 * x2008
   + 2 x2003 * x2009 + 2 x2003 * x2010 + 2 x2003 * x2013 + 2 x2003 * x2014
   + 2 x2003 * x2015 + 2 x2003 * x2016 + x2004 ^2 + 2 x2004 * x2007
   + 2 x2004 * x2008 + 2 x2004 * x2009 + 2 x2004 * x2010 + 2 x2004 * x2013
   + 2 x2004 * x2014 + 2 x2004 * x2015 + 2 x2004 * x2016 + x2007 ^2
   + 2 x2007 * x2008 + 2 x2007 * x2009 + 2 x2007 * x2010 + 2 x2007 * x2013
   + 2 x2007 * x2014 + 2 x2007 * x2015 + 2 x2007 * x2016 + x2008 ^2
   + 2 x2008 * x2009 + 2 x2008 * x2010 + 2 x2008 * x2013 + 2 x2008 * x2014
   + 2 x2008 * x2015 + 2 x2008 * x2016 + x2009 ^2 + 2 x2009 * x2010
   + 2 x2009 * x2013 + 2 x2009 * x2014 + 2 x2009 * x2015 + 2 x2009 * x2016
   + x2010 ^2 + 2 x2010 * x2013 + 2 x2010 * x2014 + 2 x2010 * x2015
   + 2 x2010 * x2016 + x2013 ^2 + 2 x2013 * x2014 + 2 x2013 * x2015
   + 2 x2013 * x2016 + x2014 ^2 + 2 x2014 * x2015 + 2 x2014 * x2016
   + x2015 ^2 + 2 x2015 * x2016 + x2016 ^2 - x3010 ^2 ] <= 0
 c_u_x3011_: [ 1.3215e-11 x510 ^2 + 1.31958e-11 x510 * x511
   + 1.04721e-11 x510 * x512 + 8.32005e-12 x510 * x513
   + 1.95567e-11 x510 * x526 + 9.76412e-12 x510 * x527
   + 7.74874e-12 x510 * x528 + 6.15634e-12 x510 * x529
   - 7.2705e-06 x510 * x1119 - 7.2705e-06 x510 * x1120
   - 7.2705e-06 x510 * x1121 - 7.2705e-06 x510 * x1122
   - 7.2705e-06 x510 * x1143 - 7.2705e-06 x510 * x1144
   - 7.2705e-06 x510 * x1145 - 7.2705e-06 x510 * x1146
   + 7.2705e-06 x510 * x1299 + 7.2705e-06 x510 * x1300
   + 7.2705e-06 x510 * x1301 + 7.2705e-06 x510 * x1302
   + 7.2705e-06 x510 * x1305 + 7.2705e-06 x510 * x1306
   + 7.2705e-06 x510 * x1307 + 7.2705e-06 x510 * x1308
   + 7.2705e-06 x510 * x1311 + 7.2705e-06 x510 * x1312
   + 7.2705e-06 x510 * x1313 + 7.2705e-06 x510 * x1314
   + 7.2705e-06 x510 * x1317 + 7.2705e-06 x510 * x1318
   + 7.2705e-06 x510 * x1319 + 7.2705e-06 x510 * x1320
   + 7.2705e-06 x510 * x1323 + 7.2705e-06 x510 * x1324
   + 7.2705e-06 x510 * x1325 + 7.2705e-06 x510 * x1326
   + 3.29416e-12 x511 ^2 + 5.22844e-12 x511 * x512
   + 4.15397e-12 x511 * x513 + 9.76412e-12 x511 * x526
   + 4.87496e-12 x511 * x527 + 3.86873e-12 x511 * x528
   + 3.07369e-12 x511 * x529 - 3.62996e-06 x511 * x1119
   - 3.62996e-06 x511 * x1120 - 3.62996e-06 x511 * x1121
   - 3.62996e-06 x511 * x1122 - 3.62996e-06 x511 * x1143
   - 3.62996e-06 x511 * x1144 - 3.62996e-06 x511 * x1145
   - 3.62996e-06 x511 * x1146 + 3.62996e-06 x511 * x1299
   + 3.62996e-06 x511 * x1300 + 3.62996e-06 x511 * x1301
   + 3.62996e-06 x511 * x1302 + 3.62996e-06 x511 * x1305
   + 3.62996e-06 x511 * x1306 + 3.62996e-06 x511 * x1307
   + 3.62996e-06 x511 * x1308 + 3.62996e-06 x511 * x1311
   + 3.62996e-06 x511 * x1312 + 3.62996e-06 x511 * x1313
   + 3.62996e-06 x511 * x1314 + 3.62996e-06 x511 * x1317
   + 3.62996e-06 x511 * x1318 + 3.62996e-06 x511 * x1319
   + 3.62996e-06 x511 * x1320 + 3.62996e-06 x511 * x1323
   + 3.62996e-06 x511 * x1324 + 3.62996e-06 x511 * x1325
   + 3.62996e-06 x511 * x1326 + 2.07463e-12 x512 ^2
   + 3.29656e-12 x512 * x513 + 7.74874e-12 x512 * x526
   + 3.86873e-12 x512 * x527 + 3.0702e-12 x512 * x528
   + 2.43926e-12 x512 * x529 - 2.88071e-06 x512 * x1119
   - 2.88071e-06 x512 * x1120 - 2.88071e-06 x512 * x1121
   - 2.88071e-06 x512 * x1122 - 2.88071e-06 x512 * x1143
   - 2.88071e-06 x512 * x1144 - 2.88071e-06 x512 * x1145
   - 2.88071e-06 x512 * x1146 + 2.88071e-06 x512 * x1299
   + 2.88071e-06 x512 * x1300 + 2.88071e-06 x512 * x1301
   + 2.88071e-06 x512 * x1302 + 2.88071e-06 x512 * x1305
   + 2.88071e-06 x512 * x1306 + 2.88071e-06 x512 * x1307
   + 2.88071e-06 x512 * x1308 + 2.88071e-06 x512 * x1311
   + 2.88071e-06 x512 * x1312 + 2.88071e-06 x512 * x1313
   + 2.88071e-06 x512 * x1314 + 2.88071e-06 x512 * x1317
   + 2.88071e-06 x512 * x1318 + 2.88071e-06 x512 * x1319
   + 2.88071e-06 x512 * x1320 + 2.88071e-06 x512 * x1323
   + 2.88071e-06 x512 * x1324 + 2.88071e-06 x512 * x1325
   + 2.88071e-06 x512 * x1326 + 1.30955e-12 x513 ^2
   + 6.15634e-12 x513 * x526 + 3.07369e-12 x513 * x527
   + 2.43926e-12 x513 * x528 + 1.93798e-12 x513 * x529
   - 2.28871e-06 x513 * x1119 - 2.28871e-06 x513 * x1120
   - 2.28871e-06 x513 * x1121 - 2.28871e-06 x513 * x1122
   - 2.28871e-06 x513 * x1143 - 2.28871e-06 x513 * x1144
   - 2.28871e-06 x513 * x1145 - 2.28871e-06 x513 * x1146
   + 2.28871e-06 x513 * x1299 + 2.28871e-06 x513 * x1300
   + 2.28871e-06 x513 * x1301 + 2.28871e-06 x513 * x1302
   + 2.28871e-06 x513 * x1305 + 2.28871e-06 x513 * x1306
   + 2.28871e-06 x513 * x1307 + 2.28871e-06 x513 * x1308
   + 2.28871e-06 x513 * x1311 + 2.28871e-06 x513 * x1312
   + 2.28871e-06 x513 * x1313 + 2.28871e-06 x513 * x1314
   + 2.28871e-06 x513 * x1317 + 2.28871e-06 x513 * x1318
   + 2.28871e-06 x513 * x1319 + 2.28871e-06 x513 * x1320
   + 2.28871e-06 x513 * x1323 + 2.28871e-06 x513 * x1324
   + 2.28871e-06 x513 * x1325 + 2.28871e-06 x513 * x1326
   + 7.23538e-12 x526 ^2 + 7.22486e-12 x526 * x527 + 5.7336e-12 x526 * x528
   + 4.55532e-12 x526 * x529 - 5.37973e-06 x526 * x1119
   - 5.37973e-06 x526 * x1120 - 5.37973e-06 x526 * x1121
   - 5.37973e-06 x526 * x1122 - 5.37973e-06 x526 * x1143
   - 5.37973e-06 x526 * x1144 - 5.37973e-06 x526 * x1145
   - 5.37973e-06 x526 * x1146 + 5.37973e-06 x526 * x1299
   + 5.37973e-06 x526 * x1300 + 5.37973e-06 x526 * x1301
   + 5.37973e-06 x526 * x1302 + 5.37973e-06 x526 * x1305
   + 5.37973e-06 x526 * x1306 + 5.37973e-06 x526 * x1307
   + 5.37973e-06 x526 * x1308 + 5.37973e-06 x526 * x1311
   + 5.37973e-06 x526 * x1312 + 5.37973e-06 x526 * x1313
   + 5.37973e-06 x526 * x1314 + 5.37973e-06 x526 * x1317
   + 5.37973e-06 x526 * x1318 + 5.37973e-06 x526 * x1319
   + 5.37973e-06 x526 * x1320 + 5.37973e-06 x526 * x1323
   + 5.37973e-06 x526 * x1324 + 5.37973e-06 x526 * x1325
   + 5.37973e-06 x526 * x1326 + 1.80359e-12 x527 ^2
   + 2.86263e-12 x527 * x528 + 2.27435e-12 x527 * x529
   - 2.68596e-06 x527 * x1119 - 2.68596e-06 x527 * x1120
   - 2.68596e-06 x527 * x1121 - 2.68596e-06 x527 * x1122
   - 2.68596e-06 x527 * x1143 - 2.68596e-06 x527 * x1144
   - 2.68596e-06 x527 * x1145 - 2.68596e-06 x527 * x1146
   + 2.68596e-06 x527 * x1299 + 2.68596e-06 x527 * x1300
   + 2.68596e-06 x527 * x1301 + 2.68596e-06 x527 * x1302
   + 2.68596e-06 x527 * x1305 + 2.68596e-06 x527 * x1306
   + 2.68596e-06 x527 * x1307 + 2.68596e-06 x527 * x1308
   + 2.68596e-06 x527 * x1311 + 2.68596e-06 x527 * x1312
   + 2.68596e-06 x527 * x1313 + 2.68596e-06 x527 * x1314
   + 2.68596e-06 x527 * x1317 + 2.68596e-06 x527 * x1318
   + 2.68596e-06 x527 * x1319 + 2.68596e-06 x527 * x1320
   + 2.68596e-06 x527 * x1323 + 2.68596e-06 x527 * x1324
   + 2.68596e-06 x527 * x1325 + 2.68596e-06 x527 * x1326
   + 1.13588e-12 x528 ^2 + 1.80491e-12 x528 * x529
   - 2.13156e-06 x528 * x1119 - 2.13156e-06 x528 * x1120
   - 2.13156e-06 x528 * x1121 - 2.13156e-06 x528 * x1122
   - 2.13156e-06 x528 * x1143 - 2.13156e-06 x528 * x1144
   - 2.13156e-06 x528 * x1145 - 2.13156e-06 x528 * x1146
   + 2.13156e-06 x528 * x1299 + 2.13156e-06 x528 * x1300
   + 2.13156e-06 x528 * x1301 + 2.13156e-06 x528 * x1302
   + 2.13156e-06 x528 * x1305 + 2.13156e-06 x528 * x1306
   + 2.13156e-06 x528 * x1307 + 2.13156e-06 x528 * x1308
   + 2.13156e-06 x528 * x1311 + 2.13156e-06 x528 * x1312
   + 2.13156e-06 x528 * x1313 + 2.13156e-06 x528 * x1314
   + 2.13156e-06 x528 * x1317 + 2.13156e-06 x528 * x1318
   + 2.13156e-06 x528 * x1319 + 2.13156e-06 x528 * x1320
   + 2.13156e-06 x528 * x1323 + 2.13156e-06 x528 * x1324
   + 2.13156e-06 x528 * x1325 + 2.13156e-06 x528 * x1326
   + 7.16995e-13 x529 ^2 - 1.69351e-06 x529 * x1119
   - 1.69351e-06 x529 * x1120 - 1.69351e-06 x529 * x1121
   - 1.69351e-06 x529 * x1122 - 1.69351e-06 x529 * x1143
   - 1.69351e-06 x529 * x1144 - 1.69351e-06 x529 * x1145
   - 1.69351e-06 x529 * x1146 + 1.69351e-06 x529 * x1299
   + 1.69351e-06 x529 * x1300 + 1.69351e-06 x529 * x1301
   + 1.69351e-06 x529 * x1302 + 1.69351e-06 x529 * x1305
   + 1.69351e-06 x529 * x1306 + 1.69351e-06 x529 * x1307
   + 1.69351e-06 x529 * x1308 + 1.69351e-06 x529 * x1311
   + 1.69351e-06 x529 * x1312 + 1.69351e-06 x529 * x1313
   + 1.69351e-06 x529 * x1314 + 1.69351e-06 x529 * x1317
   + 1.69351e-06 x529 * x1318 + 1.69351e-06 x529 * x1319
   + 1.69351e-06 x529 * x1320 + 1.69351e-06 x529 * x1323
   + 1.69351e-06 x529 * x1324 + 1.69351e-06 x529 * x1325
   + 1.69351e-06 x529 * x1326 + x1119 ^2 + 2 x1119 * x1120
   + 2 x1119 * x1121 + 2 x1119 * x1122 + 2 x1119 * x1143 + 2 x1119 * x1144
   + 2 x1119 * x1145 + 2 x1119 * x1146 - 2 x1119 * x1299 - 2 x1119 * x1300
   - 2 x1119 * x1301 - 2 x1119 * x1302 - 2 x1119 * x1305 - 2 x1119 * x1306
   - 2 x1119 * x1307 - 2 x1119 * x1308 - 2 x1119 * x1311 - 2 x1119 * x1312
   - 2 x1119 * x1313 - 2 x1119 * x1314 - 2 x1119 * x1317 - 2 x1119 * x1318
   - 2 x1119 * x1319 - 2 x1119 * x1320 - 2 x1119 * x1323 - 2 x1119 * x1324
   - 2 x1119 * x1325 - 2 x1119 * x1326 + x1120 ^2 + 2 x1120 * x1121
   + 2 x1120 * x1122 + 2 x1120 * x1143 + 2 x1120 * x1144 + 2 x1120 * x1145
   + 2 x1120 * x1146 - 2 x1120 * x1299 - 2 x1120 * x1300 - 2 x1120 * x1301
   - 2 x1120 * x1302 - 2 x1120 * x1305 - 2 x1120 * x1306 - 2 x1120 * x1307
   - 2 x1120 * x1308 - 2 x1120 * x1311 - 2 x1120 * x1312 - 2 x1120 * x1313
   - 2 x1120 * x1314 - 2 x1120 * x1317 - 2 x1120 * x1318 - 2 x1120 * x1319
   - 2 x1120 * x1320 - 2 x1120 * x1323 - 2 x1120 * x1324 - 2 x1120 * x1325
   - 2 x1120 * x1326 + x1121 ^2 + 2 x1121 * x1122 + 2 x1121 * x1143
   + 2 x1121 * x1144 + 2 x1121 * x1145 + 2 x1121 * x1146 - 2 x1121 * x1299
   - 2 x1121 * x1300 - 2 x1121 * x1301 - 2 x1121 * x1302 - 2 x1121 * x1305
   - 2 x1121 * x1306 - 2 x1121 * x1307 - 2 x1121 * x1308 - 2 x1121 * x1311
   - 2 x1121 * x1312 - 2 x1121 * x1313 - 2 x1121 * x1314 - 2 x1121 * x1317
   - 2 x1121 * x1318 - 2 x1121 * x1319 - 2 x1121 * x1320 - 2 x1121 * x1323
   - 2 x1121 * x1324 - 2 x1121 * x1325 - 2 x1121 * x1326 + x1122 ^2
   + 2 x1122 * x1143 + 2 x1122 * x1144 + 2 x1122 * x1145 + 2 x1122 * x1146
   - 2 x1122 * x1299 - 2 x1122 * x1300 - 2 x1122 * x1301 - 2 x1122 * x1302
   - 2 x1122 * x1305 - 2 x1122 * x1306 - 2 x1122 * x1307 - 2 x1122 * x1308
   - 2 x1122 * x1311 - 2 x1122 * x1312 - 2 x1122 * x1313 - 2 x1122 * x1314
   - 2 x1122 * x1317 - 2 x1122 * x1318 - 2 x1122 * x1319 - 2 x1122 * x1320
   - 2 x1122 * x1323 - 2 x1122 * x1324 - 2 x1122 * x1325 - 2 x1122 * x1326
   + x1143 ^2 + 2 x1143 * x1144 + 2 x1143 * x1145 + 2 x1143 * x1146
   - 2 x1143 * x1299 - 2 x1143 * x1300 - 2 x1143 * x1301 - 2 x1143 * x1302
   - 2 x1143 * x1305 - 2 x1143 * x1306 - 2 x1143 * x1307 - 2 x1143 * x1308
   - 2 x1143 * x1311 - 2 x1143 * x1312 - 2 x1143 * x1313 - 2 x1143 * x1314
   - 2 x1143 * x1317 - 2 x1143 * x1318 - 2 x1143 * x1319 - 2 x1143 * x1320
   - 2 x1143 * x1323 - 2 x1143 * x1324 - 2 x1143 * x1325 - 2 x1143 * x1326
   + x1144 ^2 + 2 x1144 * x1145 + 2 x1144 * x1146 - 2 x1144 * x1299
   - 2 x1144 * x1300 - 2 x1144 * x1301 - 2 x1144 * x1302 - 2 x1144 * x1305
   - 2 x1144 * x1306 - 2 x1144 * x1307 - 2 x1144 * x1308 - 2 x1144 * x1311
   - 2 x1144 * x1312 - 2 x1144 * x1313 - 2 x1144 * x1314 - 2 x1144 * x1317
   - 2 x1144 * x1318 - 2 x1144 * x1319 - 2 x1144 * x1320 - 2 x1144 * x1323
   - 2 x1144 * x1324 - 2 x1144 * x1325 - 2 x1144 * x1326 + x1145 ^2
   + 2 x1145 * x1146 - 2 x1145 * x1299 - 2 x1145 * x1300 - 2 x1145 * x1301
   - 2 x1145 * x1302 - 2 x1145 * x1305 - 2 x1145 * x1306 - 2 x1145 * x1307
   - 2 x1145 * x1308 - 2 x1145 * x1311 - 2 x1145 * x1312 - 2 x1145 * x1313
   - 2 x1145 * x1314 - 2 x1145 * x1317 - 2 x1145 * x1318 - 2 x1145 * x1319
   - 2 x1145 * x1320 - 2 x1145 * x1323 - 2 x1145 * x1324 - 2 x1145 * x1325
   - 2 x1145 * x1326 + x1146 ^2 - 2 x1146 * x1299 - 2 x1146 * x1300
   - 2 x1146 * x1301 - 2 x1146 * x1302 - 2 x1146 * x1305 - 2 x1146 * x1306
   - 2 x1146 * x1307 - 2 x1146 * x1308 - 2 x1146 * x1311 - 2 x1146 * x1312
   - 2 x1146 * x1313 - 2 x1146 * x1314 - 2 x1146 * x1317 - 2 x1146 * x1318
   - 2 x1146 * x1319 - 2 x1146 * x1320 - 2 x1146 * x1323 - 2 x1146 * x1324
   - 2 x1146 * x1325 - 2 x1146 * x1326 + x1299 ^2 + 2 x1299 * x1300
   + 2 x1299 * x1301 + 2 x1299 * x1302 + 2 x1299 * x1305 + 2 x1299 * x1306
   + 2 x1299 * x1307 + 2 x1299 * x1308 + 2 x1299 * x1311 + 2 x1299 * x1312
   + 2 x1299 * x1313 + 2 x1299 * x1314 + 2 x1299 * x1317 + 2 x1299 * x1318
   + 2 x1299 * x1319 + 2 x1299 * x1320 + 2 x1299 * x1323 + 2 x1299 * x1324
   + 2 x1299 * x1325 + 2 x1299 * x1326 + x1300 ^2 + 2 x1300 * x1301
   + 2 x1300 * x1302 + 2 x1300 * x1305 + 2 x1300 * x1306 + 2 x1300 * x1307
   + 2 x1300 * x1308 + 2 x1300 * x1311 + 2 x1300 * x1312 + 2 x1300 * x1313
   + 2 x1300 * x1314 + 2 x1300 * x1317 + 2 x1300 * x1318 + 2 x1300 * x1319
   + 2 x1300 * x1320 + 2 x1300 * x1323 + 2 x1300 * x1324 + 2 x1300 * x1325
   + 2 x1300 * x1326 + x1301 ^2 + 2 x1301 * x1302 + 2 x1301 * x1305
   + 2 x1301 * x1306 + 2 x1301 * x1307 + 2 x1301 * x1308 + 2 x1301 * x1311
   + 2 x1301 * x1312 + 2 x1301 * x1313 + 2 x1301 * x1314 + 2 x1301 * x1317
   + 2 x1301 * x1318 + 2 x1301 * x1319 + 2 x1301 * x1320 + 2 x1301 * x1323
   + 2 x1301 * x1324 + 2 x1301 * x1325 + 2 x1301 * x1326 + x1302 ^2
   + 2 x1302 * x1305 + 2 x1302 * x1306 + 2 x1302 * x1307 + 2 x1302 * x1308
   + 2 x1302 * x1311 + 2 x1302 * x1312 + 2 x1302 * x1313 + 2 x1302 * x1314
   + 2 x1302 * x1317 + 2 x1302 * x1318 + 2 x1302 * x1319 + 2 x1302 * x1320
   + 2 x1302 * x1323 + 2 x1302 * x1324 + 2 x1302 * x1325 + 2 x1302 * x1326
   + x1305 ^2 + 2 x1305 * x1306 + 2 x1305 * x1307 + 2 x1305 * x1308
   + 2 x1305 * x1311 + 2 x1305 * x1312 + 2 x1305 * x1313 + 2 x1305 * x1314
   + 2 x1305 * x1317 + 2 x1305 * x1318 + 2 x1305 * x1319 + 2 x1305 * x1320
   + 2 x1305 * x1323 + 2 x1305 * x1324 + 2 x1305 * x1325 + 2 x1305 * x1326
   + x1306 ^2 + 2 x1306 * x1307 + 2 x1306 * x1308 + 2 x1306 * x1311
   + 2 x1306 * x1312 + 2 x1306 * x1313 + 2 x1306 * x1314 + 2 x1306 * x1317
   + 2 x1306 * x1318 + 2 x1306 * x1319 + 2 x1306 * x1320 + 2 x1306 * x1323
   + 2 x1306 * x1324 + 2 x1306 * x1325 + 2 x1306 * x1326 + x1307 ^2
   + 2 x1307 * x1308 + 2 x1307 * x1311 + 2 x1307 * x1312 + 2 x1307 * x1313
   + 2 x1307 * x1314 + 2 x1307 * x1317 + 2 x1307 * x1318 + 2 x1307 * x1319
   + 2 x1307 * x1320 + 2 x1307 * x1323 + 2 x1307 * x1324 + 2 x1307 * x1325
   + 2 x1307 * x1326 + x1308 ^2 + 2 x1308 * x1311 + 2 x1308 * x1312
   + 2 x1308 * x1313 + 2 x1308 * x1314 + 2 x1308 * x1317 + 2 x1308 * x1318
   + 2 x1308 * x1319 + 2 x1308 * x1320 + 2 x1308 * x1323 + 2 x1308 * x1324
   + 2 x1308 * x1325 + 2 x1308 * x1326 + x1311 ^2 + 2 x1311 * x1312
   + 2 x1311 * x1313 + 2 x1311 * x1314 + 2 x1311 * x1317 + 2 x1311 * x1318
   + 2 x1311 * x1319 + 2 x1311 * x1320 + 2 x1311 * x1323 + 2 x1311 * x1324
   + 2 x1311 * x1325 + 2 x1311 * x1326 + x1312 ^2 + 2 x1312 * x1313
   + 2 x1312 * x1314 + 2 x1312 * x1317 + 2 x1312 * x1318 + 2 x1312 * x1319
   + 2 x1312 * x1320 + 2 x1312 * x1323 + 2 x1312 * x1324 + 2 x1312 * x1325
   + 2 x1312 * x1326 + x1313 ^2 + 2 x1313 * x1314 + 2 x1313 * x1317
   + 2 x1313 * x1318 + 2 x1313 * x1319 + 2 x1313 * x1320 + 2 x1313 * x1323
   + 2 x1313 * x1324 + 2 x1313 * x1325 + 2 x1313 * x1326 + x1314 ^2
   + 2 x1314 * x1317 + 2 x1314 * x1318 + 2 x1314 * x1319 + 2 x1314 * x1320
   + 2 x1314 * x1323 + 2 x1314 * x1324 + 2 x1314 * x1325 + 2 x1314 * x1326
   + x1317 ^2 + 2 x1317 * x1318 + 2 x1317 * x1319 + 2 x1317 * x1320
   + 2 x1317 * x1323 + 2 x1317 * x1324 + 2 x1317 * x1325 + 2 x1317 * x1326
   + x1318 ^2 + 2 x1318 * x1319 + 2 x1318 * x1320 + 2 x1318 * x1323
   + 2 x1318 * x1324 + 2 x1318 * x1325 + 2 x1318 * x1326 + x1319 ^2
   + 2 x1319 * x1320 + 2 x1319 * x1323 + 2 x1319 * x1324 + 2 x1319 * x1325
   + 2 x1319 * x1326 + x1320 ^2 + 2 x1320 * x1323 + 2 x1320 * x1324
   + 2 x1320 * x1325 + 2 x1320 * x1326 + x1323 ^2 + 2 x1323 * x1324
   + 2 x1323 * x1325 + 2 x1323 * x1326 + x1324 ^2 + 2 x1324 * x1325
   + 2 x1324 * x1326 + x1325 ^2 + 2 x1325 * x1326 + x1326 ^2 + x2019 ^2
   + 2 x2019 * x2020 + 2 x2019 * x2021 + 2 x2019 * x2022 + 2 x2019 * x2025
   + 2 x2019 * x2026 + 2 x2019 * x2027 + 2 x2019 * x2028 + 2 x2019 * x2031
   + 2 x2019 * x2032 + 2 x2019 * x2033 + 2 x2019 * x2034 + 2 x2019 * x2037
   + 2 x2019 * x2038 + 2 x2019 * x2039 + 2 x2019 * x2040 + 2 x2019 * x2043
   + 2 x2019 * x2044 + 2 x2019 * x2045 + 2 x2019 * x2046 + x2020 ^2
   + 2 x2020 * x2021 + 2 x2020 * x2022 + 2 x2020 * x2025 + 2 x2020 * x2026
   + 2 x2020 * x2027 + 2 x2020 * x2028 + 2 x2020 * x2031 + 2 x2020 * x2032
   + 2 x2020 * x2033 + 2 x2020 * x2034 + 2 x2020 * x2037 + 2 x2020 * x2038
   + 2 x2020 * x2039 + 2 x2020 * x2040 + 2 x2020 * x2043 + 2 x2020 * x2044
   + 2 x2020 * x2045 + 2 x2020 * x2046 + x2021 ^2 + 2 x2021 * x2022
   + 2 x2021 * x2025 + 2 x2021 * x2026 + 2 x2021 * x2027 + 2 x2021 * x2028
   + 2 x2021 * x2031 + 2 x2021 * x2032 + 2 x2021 * x2033 + 2 x2021 * x2034
   + 2 x2021 * x2037 + 2 x2021 * x2038 + 2 x2021 * x2039 + 2 x2021 * x2040
   + 2 x2021 * x2043 + 2 x2021 * x2044 + 2 x2021 * x2045 + 2 x2021 * x2046
   + x2022 ^2 + 2 x2022 * x2025 + 2 x2022 * x2026 + 2 x2022 * x2027
   + 2 x2022 * x2028 + 2 x2022 * x2031 + 2 x2022 * x2032 + 2 x2022 * x2033
   + 2 x2022 * x2034 + 2 x2022 * x2037 + 2 x2022 * x2038 + 2 x2022 * x2039
   + 2 x2022 * x2040 + 2 x2022 * x2043 + 2 x2022 * x2044 + 2 x2022 * x2045
   + 2 x2022 * x2046 + x2025 ^2 + 2 x2025 * x2026 + 2 x2025 * x2027
   + 2 x2025 * x2028 + 2 x2025 * x2031 + 2 x2025 * x2032 + 2 x2025 * x2033
   + 2 x2025 * x2034 + 2 x2025 * x2037 + 2 x2025 * x2038 + 2 x2025 * x2039
   + 2 x2025 * x2040 + 2 x2025 * x2043 + 2 x2025 * x2044 + 2 x2025 * x2045
   + 2 x2025 * x2046 + x2026 ^2 + 2 x2026 * x2027 + 2 x2026 * x2028
   + 2 x2026 * x2031 + 2 x2026 * x2032 + 2 x2026 * x2033 + 2 x2026 * x2034
   + 2 x2026 * x2037 + 2 x2026 * x2038 + 2 x2026 * x2039 + 2 x2026 * x2040
   + 2 x2026 * x2043 + 2 x2026 * x2044 + 2 x2026 * x2045 + 2 x2026 * x2046
   + x2027 ^2 + 2 x2027 * x2028 + 2 x2027 * x2031 + 2 x2027 * x2032
   + 2 x2027 * x2033 + 2 x2027 * x2034 + 2 x2027 * x2037 + 2 x2027 * x2038
   + 2 x2027 * x2039 + 2 x2027 * x2040 + 2 x2027 * x2043 + 2 x2027 * x2044
   + 2 x2027 * x2045 + 2 x2027 * x2046 + x2028 ^2 + 2 x2028 * x2031
   + 2 x2028 * x2032 + 2 x2028 * x2033 + 2 x2028 * x2034 + 2 x2028 * x2037
   + 2 x2028 * x2038 + 2 x2028 * x2039 + 2 x2028 * x2040 + 2 x2028 * x2043
   + 2 x2028 * x2044 + 2 x2028 * x2045 + 2 x2028 * x2046 + x2031 ^2
   + 2 x2031 * x2032 + 2 x2031 * x2033 + 2 x2031 * x2034 + 2 x2031 * x2037
   + 2 x2031 * x2038 + 2 x2031 * x2039 + 2 x2031 * x2040 + 2 x2031 * x2043
   + 2 x2031 * x2044 + 2 x2031 * x2045 + 2 x2031 * x2046 + x2032 ^2
   + 2 x2032 * x2033 + 2 x2032 * x2034 + 2 x2032 * x2037 + 2 x2032 * x2038
   + 2 x2032 * x2039 + 2 x2032 * x2040 + 2 x2032 * x2043 + 2 x2032 * x2044
   + 2 x2032 * x2045 + 2 x2032 * x2046 + x2033 ^2 + 2 x2033 * x2034
   + 2 x2033 * x2037 + 2 x2033 * x2038 + 2 x2033 * x2039 + 2 x2033 * x2040
   + 2 x2033 * x2043 + 2 x2033 * x2044 + 2 x2033 * x2045 + 2 x2033 * x2046
   + x2034 ^2 + 2 x2034 * x2037 + 2 x2034 * x2038 + 2 x2034 * x2039
   + 2 x2034 * x2040 + 2 x2034 * x2043 + 2 x2034 * x2044 + 2 x2034 * x2045
   + 2 x2034 * x2046 + x2037 ^2 + 2 x2037 * x2038 + 2 x2037 * x2039
   + 2 x2037 * x2040 + 2 x2037 * x2043 + 2 x2037 * x2044 + 2 x2037 * x2045
   + 2 x2037 * x2046 + x2038 ^2 + 2 x2038 * x2039 + 2 x2038 * x2040
   + 2 x2038 * x2043 + 2 x2038 * x2044 + 2 x2038 * x2045 + 2 x2038 * x2046
   + x2039 ^2 + 2 x2039 * x2040 + 2 x2039 * x2043 + 2 x2039 * x2044
   + 2 x2039 * x2045 + 2 x2039 * x2046 + x2040 ^2 + 2 x2040 * x2043
   + 2 x2040 * x2044 + 2 x2040 * x2045 + 2 x2040 * x2046 + x2043 ^2
   + 2 x2043 * x2044 + 2 x2043 * x2045 + 2 x2043 * x2046 + x2044 ^2
   + 2 x2044 * x2045 + 2 x2044 * x2046 + x2045 ^2 + 2 x2045 * x2046
   + x2046 ^2 - x3012 ^2 ] <= 0
Bounds
Binaries
 x9 x10 x11 x12 x13 x14 x15 x16 x17 x18 x19 x20 x21 x22 x23 x24 x25 x26 x27
 x28 x29 x30 x31 x32 x33 x34 x35 x36 x37 x38 x39 x40 x41 x42 x43 x44 x45
 x46 x47 x48 x49 x50 x51 x52 x53 x54 x55 x56 x57 x58 x59 x60 x61 x62 x63
 x64 x65 x66 x67 x68 x69 x70 x71 x72 x73 x74 x75 x76 x77 x78 x79 x80 x81
 x82 x83 x84 x85 x86 x87 x88 x89 x90 x91 x92 x93 x94 x95 x96 x97 x98 x99
 x100 x101 x102 x103 x104 x105 x106 x107 x108 x109 x110 x111 x112 x113 x114
 x115 x116 x117 x118 x119 x120 x121 x122 x123 x124 x125 x126 x127 x128 x129
 x130 x131 x132 x133 x134 x135 x136 x137 x138 x139 x140 x141 x142 x143 x144
 x145 x146 x147 x148 x149 x150 x151 x152 x153 x154 x155 x156 x157 x158 x159
 x160 x161 x162 x163 x164 x165 x166 x167 x168 x169 x170 x171 x172 x173 x174
 x175 x176 x177 x178 x179 x180 x181 x182 x183 x184 x185 x186 x187 x188 x189
 x190 x191 x192 x193 x194 x195 x196 x197 x198 x199 x200 x201 x202 x203 x204
 x205 x206 x207 x208 x209 x210 x211 x212 x213 x214 x215 x216 x217 x218 x219
 x220 x221 x222 x223 x224 x225 x226 x227 x228 x229 x230 x231 x232 x233 x234
 x235 x236 x237 x238 x239 x240 x241 x242 x243 x244 x245 x246 x247 x248
 x2514 x2517 x2520 x2523 x2526 x2528 x2530 x2532 x2535 x2538 x2541 x2543
 x2545 x2547 x2550 x2553 x2556 x2558 x2560 x2562 x2565 x2568 x2571 x2574
 x2576 x2578 x2580 x2582 x2585 x2588 x2591 x2594 x2597 x2599 x2601 x2603
 x2605 x2607 x2609 x2611 x2613 x2615 x2617 x2619 x2621 x2623 x2625 x2627
 x2629 x2631 x2633 x2635 x2637 x2639 x2641 x2643 x2645 x2647 x2649 x2651
 x2986 x2988 x3022 x3024 x3026 x3028
End
